NAME          base_lp_t6
* SYNTHETIC refinery stress case; invented data, linear model only.
ROWS
 N  COST
 E  CBAL_SWEET_0
 E  CBAL_SOUR_0
 L  CAP_0
 E  IBAL_N_0
 E  IBAL_D_0
 E  IBAL_R_0
 E  RFBAL_0
 E  PBAL_GAS_0
 E  PBAL_DSL_0
 E  PBAL_FO_0
 G  OCT_0
 L  SULF_0
 E  CBAL_SWEET_1
 E  CBAL_SOUR_1
 L  CAP_1
 E  IBAL_N_1
 E  IBAL_D_1
 E  IBAL_R_1
 E  RFBAL_1
 E  PBAL_GAS_1
 E  PBAL_DSL_1
 E  PBAL_FO_1
 G  OCT_1
 L  SULF_1
 E  CBAL_SWEET_2
 E  CBAL_SOUR_2
 L  CAP_2
 E  IBAL_N_2
 E  IBAL_D_2
 E  IBAL_R_2
 E  RFBAL_2
 E  PBAL_GAS_2
 E  PBAL_DSL_2
 E  PBAL_FO_2
 G  OCT_2
 L  SULF_2
 E  CBAL_SWEET_3
 E  CBAL_SOUR_3
 L  CAP_3
 E  IBAL_N_3
 E  IBAL_D_3
 E  IBAL_R_3
 E  RFBAL_3
 E  PBAL_GAS_3
 E  PBAL_DSL_3
 E  PBAL_FO_3
 G  OCT_3
 L  SULF_3
 E  CBAL_SWEET_4
 E  CBAL_SOUR_4
 L  CAP_4
 E  IBAL_N_4
 E  IBAL_D_4
 E  IBAL_R_4
 E  RFBAL_4
 E  PBAL_GAS_4
 E  PBAL_DSL_4
 E  PBAL_FO_4
 G  OCT_4
 L  SULF_4
 E  CBAL_SWEET_5
 E  CBAL_SOUR_5
 L  CAP_5
 E  IBAL_N_5
 E  IBAL_D_5
 E  IBAL_R_5
 E  RFBAL_5
 E  PBAL_GAS_5
 E  PBAL_DSL_5
 E  PBAL_FO_5
 G  OCT_5
 L  SULF_5
COLUMNS
    BUY_SWEET_0  COST  74.10089212357529
    BUY_SWEET_0  CBAL_SWEET_0  1.0
    CINV_SWEET_0  COST  0.15
    CINV_SWEET_0  CBAL_SWEET_0  -1.0
    CINV_SWEET_0  CBAL_SWEET_1  1.0
    RUN_SWEET_0  CAP_0  1.0
    RUN_SWEET_0  CBAL_SWEET_0  -1.0
    RUN_SWEET_0  IBAL_D_0  0.42
    RUN_SWEET_0  IBAL_N_0  0.28
    RUN_SWEET_0  IBAL_R_0  0.28
    BUY_SOUR_0  COST  65.59794005755637
    BUY_SOUR_0  CBAL_SOUR_0  1.0
    CINV_SOUR_0  COST  0.15
    CINV_SOUR_0  CBAL_SOUR_0  -1.0
    CINV_SOUR_0  CBAL_SOUR_1  1.0
    RUN_SOUR_0  CAP_0  1.0
    RUN_SOUR_0  CBAL_SOUR_0  -1.0
    RUN_SOUR_0  IBAL_D_0  0.38
    RUN_SOUR_0  IBAL_N_0  0.2
    RUN_SOUR_0  IBAL_R_0  0.4
    IINV_N_0  COST  0.15
    IINV_N_0  IBAL_N_0  -1.0
    IINV_N_0  IBAL_N_1  1.0
    IINV_D_0  COST  0.15
    IINV_D_0  IBAL_D_0  -1.0
    IINV_D_0  IBAL_D_1  1.0
    IINV_R_0  COST  0.15
    IINV_R_0  IBAL_R_0  -1.0
    IINV_R_0  IBAL_R_1  1.0
    N_RF_0  COST  4.0
    N_RF_0  IBAL_N_0  -1.0
    N_RF_0  RFBAL_0  0.85
    N_G_0  IBAL_N_0  -1.0
    N_G_0  OCT_0  -15.0
    N_G_0  PBAL_GAS_0  1.0
    RF_G_0  OCT_0  13.0
    RF_G_0  PBAL_GAS_0  1.0
    RF_G_0  RFBAL_0  -1.0
    BU_G_0  COST  85.0
    BU_G_0  OCT_0  8.0
    BU_G_0  PBAL_GAS_0  1.0
    D_D_0  IBAL_D_0  -1.0
    D_D_0  PBAL_DSL_0  1.0
    D_D_0  SULF_0  0.2
    HD_D_0  COST  92.0
    HD_D_0  PBAL_DSL_0  1.0
    HD_D_0  SULF_0  -0.25
    R_FO_0  IBAL_R_0  -1.0
    R_FO_0  PBAL_FO_0  1.0
    SELL_GAS_0  COST  -102.43173314704343
    SELL_GAS_0  PBAL_GAS_0  -1.0
    PINV_GAS_0  COST  0.15
    PINV_GAS_0  PBAL_GAS_0  -1.0
    PINV_GAS_0  PBAL_GAS_1  1.0
    SELL_DSL_0  COST  -96.15521004290069
    SELL_DSL_0  PBAL_DSL_0  -1.0
    PINV_DSL_0  COST  0.15
    PINV_DSL_0  PBAL_DSL_0  -1.0
    PINV_DSL_0  PBAL_DSL_1  1.0
    SELL_FO_0  COST  -61.42548590460014
    SELL_FO_0  PBAL_FO_0  -1.0
    PINV_FO_0  COST  0.15
    PINV_FO_0  PBAL_FO_0  -1.0
    PINV_FO_0  PBAL_FO_1  1.0
    BUY_SWEET_1  COST  77.36971721234569
    BUY_SWEET_1  CBAL_SWEET_1  1.0
    CINV_SWEET_1  COST  0.15
    CINV_SWEET_1  CBAL_SWEET_1  -1.0
    CINV_SWEET_1  CBAL_SWEET_2  1.0
    RUN_SWEET_1  CAP_1  1.0
    RUN_SWEET_1  CBAL_SWEET_1  -1.0
    RUN_SWEET_1  IBAL_D_1  0.42
    RUN_SWEET_1  IBAL_N_1  0.28
    RUN_SWEET_1  IBAL_R_1  0.28
    BUY_SOUR_1  COST  65.99027529817431
    BUY_SOUR_1  CBAL_SOUR_1  1.0
    CINV_SOUR_1  COST  0.15
    CINV_SOUR_1  CBAL_SOUR_1  -1.0
    CINV_SOUR_1  CBAL_SOUR_2  1.0
    RUN_SOUR_1  CAP_1  1.0
    RUN_SOUR_1  CBAL_SOUR_1  -1.0
    RUN_SOUR_1  IBAL_D_1  0.38
    RUN_SOUR_1  IBAL_N_1  0.2
    RUN_SOUR_1  IBAL_R_1  0.4
    IINV_N_1  COST  0.15
    IINV_N_1  IBAL_N_1  -1.0
    IINV_N_1  IBAL_N_2  1.0
    IINV_D_1  COST  0.15
    IINV_D_1  IBAL_D_1  -1.0
    IINV_D_1  IBAL_D_2  1.0
    IINV_R_1  COST  0.15
    IINV_R_1  IBAL_R_1  -1.0
    IINV_R_1  IBAL_R_2  1.0
    N_RF_1  COST  4.0
    N_RF_1  IBAL_N_1  -1.0
    N_RF_1  RFBAL_1  0.85
    N_G_1  IBAL_N_1  -1.0
    N_G_1  OCT_1  -15.0
    N_G_1  PBAL_GAS_1  1.0
    RF_G_1  OCT_1  13.0
    RF_G_1  PBAL_GAS_1  1.0
    RF_G_1  RFBAL_1  -1.0
    BU_G_1  COST  85.0
    BU_G_1  OCT_1  8.0
    BU_G_1  PBAL_GAS_1  1.0
    D_D_1  IBAL_D_1  -1.0
    D_D_1  PBAL_DSL_1  1.0
    D_D_1  SULF_1  0.2
    HD_D_1  COST  92.0
    HD_D_1  PBAL_DSL_1  1.0
    HD_D_1  SULF_1  -0.25
    R_FO_1  IBAL_R_1  -1.0
    R_FO_1  PBAL_FO_1  1.0
    SELL_GAS_1  COST  -107.38213984926296
    SELL_GAS_1  PBAL_GAS_1  -1.0
    PINV_GAS_1  COST  0.15
    PINV_GAS_1  PBAL_GAS_1  -1.0
    PINV_GAS_1  PBAL_GAS_2  1.0
    SELL_DSL_1  COST  -95.2210390480038
    SELL_DSL_1  PBAL_DSL_1  -1.0
    PINV_DSL_1  COST  0.15
    PINV_DSL_1  PBAL_DSL_1  -1.0
    PINV_DSL_1  PBAL_DSL_2  1.0
    SELL_FO_1  COST  -62.63413913786366
    SELL_FO_1  PBAL_FO_1  -1.0
    PINV_FO_1  COST  0.15
    PINV_FO_1  PBAL_FO_1  -1.0
    PINV_FO_1  PBAL_FO_2  1.0
    BUY_SWEET_2  COST  75.19501812104282
    BUY_SWEET_2  CBAL_SWEET_2  1.0
    CINV_SWEET_2  COST  0.15
    CINV_SWEET_2  CBAL_SWEET_2  -1.0
    CINV_SWEET_2  CBAL_SWEET_3  1.0
    RUN_SWEET_2  CAP_2  1.0
    RUN_SWEET_2  CBAL_SWEET_2  -1.0
    RUN_SWEET_2  IBAL_D_2  0.42
    RUN_SWEET_2  IBAL_N_2  0.28
    RUN_SWEET_2  IBAL_R_2  0.28
    BUY_SOUR_2  COST  70.04506306699365
    BUY_SOUR_2  CBAL_SOUR_2  1.0
    CINV_SOUR_2  COST  0.15
    CINV_SOUR_2  CBAL_SOUR_2  -1.0
    CINV_SOUR_2  CBAL_SOUR_3  1.0
    RUN_SOUR_2  CAP_2  1.0
    RUN_SOUR_2  CBAL_SOUR_2  -1.0
    RUN_SOUR_2  IBAL_D_2  0.38
    RUN_SOUR_2  IBAL_N_2  0.2
    RUN_SOUR_2  IBAL_R_2  0.4
    IINV_N_2  COST  0.15
    IINV_N_2  IBAL_N_2  -1.0
    IINV_N_2  IBAL_N_3  1.0
    IINV_D_2  COST  0.15
    IINV_D_2  IBAL_D_2  -1.0
    IINV_D_2  IBAL_D_3  1.0
    IINV_R_2  COST  0.15
    IINV_R_2  IBAL_R_2  -1.0
    IINV_R_2  IBAL_R_3  1.0
    N_RF_2  COST  4.0
    N_RF_2  IBAL_N_2  -1.0
    N_RF_2  RFBAL_2  0.85
    N_G_2  IBAL_N_2  -1.0
    N_G_2  OCT_2  -15.0
    N_G_2  PBAL_GAS_2  1.0
    RF_G_2  OCT_2  13.0
    RF_G_2  PBAL_GAS_2  1.0
    RF_G_2  RFBAL_2  -1.0
    BU_G_2  COST  85.0
    BU_G_2  OCT_2  8.0
    BU_G_2  PBAL_GAS_2  1.0
    D_D_2  IBAL_D_2  -1.0
    D_D_2  PBAL_DSL_2  1.0
    D_D_2  SULF_2  0.2
    HD_D_2  COST  92.0
    HD_D_2  PBAL_DSL_2  1.0
    HD_D_2  SULF_2  -0.25
    R_FO_2  IBAL_R_2  -1.0
    R_FO_2  PBAL_FO_2  1.0
    SELL_GAS_2  COST  -107.9500479270322
    SELL_GAS_2  PBAL_GAS_2  -1.0
    PINV_GAS_2  COST  0.15
    PINV_GAS_2  PBAL_GAS_2  -1.0
    PINV_GAS_2  PBAL_GAS_3  1.0
    SELL_DSL_2  COST  -96.90293416757635
    SELL_DSL_2  PBAL_DSL_2  -1.0
    PINV_DSL_2  COST  0.15
    PINV_DSL_2  PBAL_DSL_2  -1.0
    PINV_DSL_2  PBAL_DSL_3  1.0
    SELL_FO_2  COST  -62.71544013028984
    SELL_FO_2  PBAL_FO_2  -1.0
    PINV_FO_2  COST  0.15
    PINV_FO_2  PBAL_FO_2  -1.0
    PINV_FO_2  PBAL_FO_3  1.0
    BUY_SWEET_3  COST  74.76334484868427
    BUY_SWEET_3  CBAL_SWEET_3  1.0
    CINV_SWEET_3  COST  0.15
    CINV_SWEET_3  CBAL_SWEET_3  -1.0
    CINV_SWEET_3  CBAL_SWEET_4  1.0
    RUN_SWEET_3  CAP_3  1.0
    RUN_SWEET_3  CBAL_SWEET_3  -1.0
    RUN_SWEET_3  IBAL_D_3  0.42
    RUN_SWEET_3  IBAL_N_3  0.28
    RUN_SWEET_3  IBAL_R_3  0.28
    BUY_SOUR_3  COST  65.75484685303907
    BUY_SOUR_3  CBAL_SOUR_3  1.0
    CINV_SOUR_3  COST  0.15
    CINV_SOUR_3  CBAL_SOUR_3  -1.0
    CINV_SOUR_3  CBAL_SOUR_4  1.0
    RUN_SOUR_3  CAP_3  1.0
    RUN_SOUR_3  CBAL_SOUR_3  -1.0
    RUN_SOUR_3  IBAL_D_3  0.38
    RUN_SOUR_3  IBAL_N_3  0.2
    RUN_SOUR_3  IBAL_R_3  0.4
    IINV_N_3  COST  0.15
    IINV_N_3  IBAL_N_3  -1.0
    IINV_N_3  IBAL_N_4  1.0
    IINV_D_3  COST  0.15
    IINV_D_3  IBAL_D_3  -1.0
    IINV_D_3  IBAL_D_4  1.0
    IINV_R_3  COST  0.15
    IINV_R_3  IBAL_R_3  -1.0
    IINV_R_3  IBAL_R_4  1.0
    N_RF_3  COST  4.0
    N_RF_3  IBAL_N_3  -1.0
    N_RF_3  RFBAL_3  0.85
    N_G_3  IBAL_N_3  -1.0
    N_G_3  OCT_3  -15.0
    N_G_3  PBAL_GAS_3  1.0
    RF_G_3  OCT_3  13.0
    RF_G_3  PBAL_GAS_3  1.0
    RF_G_3  RFBAL_3  -1.0
    BU_G_3  COST  85.0
    BU_G_3  OCT_3  8.0
    BU_G_3  PBAL_GAS_3  1.0
    D_D_3  IBAL_D_3  -1.0
    D_D_3  PBAL_DSL_3  1.0
    D_D_3  SULF_3  0.2
    HD_D_3  COST  92.0
    HD_D_3  PBAL_DSL_3  1.0
    HD_D_3  SULF_3  -0.25
    R_FO_3  IBAL_R_3  -1.0
    R_FO_3  PBAL_FO_3  1.0
    SELL_GAS_3  COST  -107.3822977716053
    SELL_GAS_3  PBAL_GAS_3  -1.0
    PINV_GAS_3  COST  0.15
    PINV_GAS_3  PBAL_GAS_3  -1.0
    PINV_GAS_3  PBAL_GAS_4  1.0
    SELL_DSL_3  COST  -95.63827938293834
    SELL_DSL_3  PBAL_DSL_3  -1.0
    PINV_DSL_3  COST  0.15
    PINV_DSL_3  PBAL_DSL_3  -1.0
    PINV_DSL_3  PBAL_DSL_4  1.0
    SELL_FO_3  COST  -61.70652036501879
    SELL_FO_3  PBAL_FO_3  -1.0
    PINV_FO_3  COST  0.15
    PINV_FO_3  PBAL_FO_3  -1.0
    PINV_FO_3  PBAL_FO_4  1.0
    BUY_SWEET_4  COST  79.4966414888137
    BUY_SWEET_4  CBAL_SWEET_4  1.0
    CINV_SWEET_4  COST  0.15
    CINV_SWEET_4  CBAL_SWEET_4  -1.0
    CINV_SWEET_4  CBAL_SWEET_5  1.0
    RUN_SWEET_4  CAP_4  1.0
    RUN_SWEET_4  CBAL_SWEET_4  -1.0
    RUN_SWEET_4  IBAL_D_4  0.42
    RUN_SWEET_4  IBAL_N_4  0.28
    RUN_SWEET_4  IBAL_R_4  0.28
    BUY_SOUR_4  COST  69.26820630823477
    BUY_SOUR_4  CBAL_SOUR_4  1.0
    CINV_SOUR_4  COST  0.15
    CINV_SOUR_4  CBAL_SOUR_4  -1.0
    CINV_SOUR_4  CBAL_SOUR_5  1.0
    RUN_SOUR_4  CAP_4  1.0
    RUN_SOUR_4  CBAL_SOUR_4  -1.0
    RUN_SOUR_4  IBAL_D_4  0.38
    RUN_SOUR_4  IBAL_N_4  0.2
    RUN_SOUR_4  IBAL_R_4  0.4
    IINV_N_4  COST  0.15
    IINV_N_4  IBAL_N_4  -1.0
    IINV_N_4  IBAL_N_5  1.0
    IINV_D_4  COST  0.15
    IINV_D_4  IBAL_D_4  -1.0
    IINV_D_4  IBAL_D_5  1.0
    IINV_R_4  COST  0.15
    IINV_R_4  IBAL_R_4  -1.0
    IINV_R_4  IBAL_R_5  1.0
    N_RF_4  COST  4.0
    N_RF_4  IBAL_N_4  -1.0
    N_RF_4  RFBAL_4  0.85
    N_G_4  IBAL_N_4  -1.0
    N_G_4  OCT_4  -15.0
    N_G_4  PBAL_GAS_4  1.0
    RF_G_4  OCT_4  13.0
    RF_G_4  PBAL_GAS_4  1.0
    RF_G_4  RFBAL_4  -1.0
    BU_G_4  COST  85.0
    BU_G_4  OCT_4  8.0
    BU_G_4  PBAL_GAS_4  1.0
    D_D_4  IBAL_D_4  -1.0
    D_D_4  PBAL_DSL_4  1.0
    D_D_4  SULF_4  0.2
    HD_D_4  COST  92.0
    HD_D_4  PBAL_DSL_4  1.0
    HD_D_4  SULF_4  -0.25
    R_FO_4  IBAL_R_4  -1.0
    R_FO_4  PBAL_FO_4  1.0
    SELL_GAS_4  COST  -107.10814173295344
    SELL_GAS_4  PBAL_GAS_4  -1.0
    PINV_GAS_4  COST  0.15
    PINV_GAS_4  PBAL_GAS_4  -1.0
    PINV_GAS_4  PBAL_GAS_5  1.0
    SELL_DSL_4  COST  -95.16753507078384
    SELL_DSL_4  PBAL_DSL_4  -1.0
    PINV_DSL_4  COST  0.15
    PINV_DSL_4  PBAL_DSL_4  -1.0
    PINV_DSL_4  PBAL_DSL_5  1.0
    SELL_FO_4  COST  -62.93053685159528
    SELL_FO_4  PBAL_FO_4  -1.0
    PINV_FO_4  COST  0.15
    PINV_FO_4  PBAL_FO_4  -1.0
    PINV_FO_4  PBAL_FO_5  1.0
    BUY_SWEET_5  COST  76.28746313810235
    BUY_SWEET_5  CBAL_SWEET_5  1.0
    CINV_SWEET_5  COST  0.15
    CINV_SWEET_5  CBAL_SWEET_5  -1.0
    RUN_SWEET_5  CAP_5  1.0
    RUN_SWEET_5  CBAL_SWEET_5  -1.0
    RUN_SWEET_5  IBAL_D_5  0.42
    RUN_SWEET_5  IBAL_N_5  0.28
    RUN_SWEET_5  IBAL_R_5  0.28
    BUY_SOUR_5  COST  65.30193684472796
    BUY_SOUR_5  CBAL_SOUR_5  1.0
    CINV_SOUR_5  COST  0.15
    CINV_SOUR_5  CBAL_SOUR_5  -1.0
    RUN_SOUR_5  CAP_5  1.0
    RUN_SOUR_5  CBAL_SOUR_5  -1.0
    RUN_SOUR_5  IBAL_D_5  0.38
    RUN_SOUR_5  IBAL_N_5  0.2
    RUN_SOUR_5  IBAL_R_5  0.4
    IINV_N_5  COST  0.15
    IINV_N_5  IBAL_N_5  -1.0
    IINV_D_5  COST  0.15
    IINV_D_5  IBAL_D_5  -1.0
    IINV_R_5  COST  0.15
    IINV_R_5  IBAL_R_5  -1.0
    N_RF_5  COST  4.0
    N_RF_5  IBAL_N_5  -1.0
    N_RF_5  RFBAL_5  0.85
    N_G_5  IBAL_N_5  -1.0
    N_G_5  OCT_5  -15.0
    N_G_5  PBAL_GAS_5  1.0
    RF_G_5  OCT_5  13.0
    RF_G_5  PBAL_GAS_5  1.0
    RF_G_5  RFBAL_5  -1.0
    BU_G_5  COST  85.0
    BU_G_5  OCT_5  8.0
    BU_G_5  PBAL_GAS_5  1.0
    D_D_5  IBAL_D_5  -1.0
    D_D_5  PBAL_DSL_5  1.0
    D_D_5  SULF_5  0.2
    HD_D_5  COST  92.0
    HD_D_5  PBAL_DSL_5  1.0
    HD_D_5  SULF_5  -0.25
    R_FO_5  IBAL_R_5  -1.0
    R_FO_5  PBAL_FO_5  1.0
    SELL_GAS_5  COST  -104.6717292149082
    SELL_GAS_5  PBAL_GAS_5  -1.0
    PINV_GAS_5  COST  0.15
    PINV_GAS_5  PBAL_GAS_5  -1.0
    SELL_DSL_5  COST  -100.4025415581874
    SELL_DSL_5  PBAL_DSL_5  -1.0
    PINV_DSL_5  COST  0.15
    PINV_DSL_5  PBAL_DSL_5  -1.0
    SELL_FO_5  COST  -61.23224463195009
    SELL_FO_5  PBAL_FO_5  -1.0
    PINV_FO_5  COST  0.15
    PINV_FO_5  PBAL_FO_5  -1.0
RHS
    RHS  CBAL_SWEET_0  -2000.0
    RHS  CBAL_SOUR_0  -2000.0
    RHS  CAP_0  30000.0
    RHS  CAP_1  30000.0
    RHS  CAP_2  30000.0
    RHS  CAP_3  30000.0
    RHS  CAP_4  30000.0
    RHS  CAP_5  30000.0
BOUNDS
 UP BND  BUY_SWEET_0  14925.362872457064
 UP BND  CINV_SWEET_0  40000.0
 UP BND  BUY_SOUR_0  18813.99543579104
 UP BND  CINV_SOUR_0  40000.0
 UP BND  IINV_N_0  15000.0
 UP BND  IINV_D_0  15000.0
 UP BND  IINV_R_0  15000.0
 UP BND  N_RF_0  5000.0
 UP BND  BU_G_0  3000.0
 UP BND  HD_D_0  4000.0
 UP BND  SELL_GAS_0  9570.989895121787
 UP BND  PINV_GAS_0  12000.0
 UP BND  SELL_DSL_0  11697.876538482185
 UP BND  PINV_DSL_0  12000.0
 UP BND  SELL_FO_0  5848.938269241093
 UP BND  PINV_FO_0  12000.0
 UP BND  BUY_SWEET_1  14163.030282814098
 UP BND  CINV_SWEET_1  40000.0
 UP BND  BUY_SOUR_1  21111.317002380554
 UP BND  CINV_SOUR_1  40000.0
 UP BND  IINV_N_1  15000.0
 UP BND  IINV_D_1  15000.0
 UP BND  IINV_R_1  15000.0
 UP BND  N_RF_1  5000.0
 UP BND  BU_G_1  3000.0
 UP BND  HD_D_1  4000.0
 UP BND  SELL_GAS_1  10342.119185232834
 UP BND  PINV_GAS_1  12000.0
 UP BND  SELL_DSL_1  12640.367893062352
 UP BND  PINV_DSL_1  12000.0
 UP BND  SELL_FO_1  6320.183946531176
 UP BND  PINV_FO_1  12000.0
 UP BND  BUY_SWEET_2  14246.497279472158
 UP BND  CINV_SWEET_2  40000.0
 UP BND  BUY_SOUR_2  18188.608934509273
 UP BND  CINV_SOUR_2  40000.0
 UP BND  IINV_N_2  15000.0
 UP BND  IINV_D_2  15000.0
 UP BND  IINV_R_2  15000.0
 UP BND  N_RF_2  5000.0
 UP BND  BU_G_2  3000.0
 UP BND  HD_D_2  4000.0
 UP BND  SELL_GAS_2  9773.589023876777
 UP BND  PINV_GAS_2  12000.0
 UP BND  SELL_DSL_2  11945.497695849395
 UP BND  PINV_DSL_2  12000.0
 UP BND  SELL_FO_2  5972.748847924698
 UP BND  PINV_FO_2  12000.0
 UP BND  BUY_SWEET_3  15657.347986716157
 UP BND  CINV_SWEET_3  40000.0
 UP BND  BUY_SOUR_3  17234.328699397294
 UP BND  CINV_SOUR_3  40000.0
 UP BND  IINV_N_3  15000.0
 UP BND  IINV_D_3  15000.0
 UP BND  IINV_R_3  15000.0
 UP BND  N_RF_3  5000.0
 UP BND  BU_G_3  3000.0
 UP BND  HD_D_3  4000.0
 UP BND  SELL_GAS_3  7927.778597319436
 UP BND  PINV_GAS_3  12000.0
 UP BND  SELL_DSL_3  9689.507174501534
 UP BND  PINV_DSL_3  12000.0
 UP BND  SELL_FO_3  4844.753587250767
 UP BND  PINV_FO_3  12000.0
 UP BND  BUY_SWEET_4  14139.294196886673
 UP BND  CINV_SWEET_4  40000.0
 UP BND  BUY_SOUR_4  18893.093786036377
 UP BND  CINV_SOUR_4  40000.0
 UP BND  IINV_N_4  15000.0
 UP BND  IINV_D_4  15000.0
 UP BND  IINV_R_4  15000.0
 UP BND  N_RF_4  5000.0
 UP BND  BU_G_4  3000.0
 UP BND  HD_D_4  4000.0
 UP BND  SELL_GAS_4  7802.2457979349665
 UP BND  PINV_GAS_4  12000.0
 UP BND  SELL_DSL_4  9536.07819747607
 UP BND  PINV_DSL_4  12000.0
 UP BND  SELL_FO_4  4768.039098738035
 UP BND  PINV_FO_4  12000.0
 UP BND  BUY_SWEET_5  15042.295748395325
 LO BND  CINV_SWEET_5  2000.0
 UP BND  CINV_SWEET_5  40000.0
 UP BND  BUY_SOUR_5  21735.67597070893
 LO BND  CINV_SOUR_5  2000.0
 UP BND  CINV_SOUR_5  40000.0
 UP BND  IINV_N_5  15000.0
 UP BND  IINV_D_5  15000.0
 UP BND  IINV_R_5  15000.0
 UP BND  N_RF_5  5000.0
 UP BND  BU_G_5  3000.0
 UP BND  HD_D_5  4000.0
 UP BND  SELL_GAS_5  8984.253092535952
 UP BND  PINV_GAS_5  12000.0
 UP BND  SELL_DSL_5  10980.753779766164
 UP BND  PINV_DSL_5  12000.0
 UP BND  SELL_FO_5  5490.376889883082
 UP BND  PINV_FO_5  12000.0
ENDATA
