NAME          base_lp_t24
* SYNTHETIC refinery stress case; invented data, linear model only.
ROWS
 N  COST
 E  CBAL_SWEET_0
 E  CBAL_SOUR_0
 L  CAP_0
 E  IBAL_N_0
 E  IBAL_D_0
 E  IBAL_R_0
 E  RFBAL_0
 E  PBAL_GAS_0
 E  PBAL_DSL_0
 E  PBAL_FO_0
 G  OCT_0
 L  SULF_0
 E  CBAL_SWEET_1
 E  CBAL_SOUR_1
 L  CAP_1
 E  IBAL_N_1
 E  IBAL_D_1
 E  IBAL_R_1
 E  RFBAL_1
 E  PBAL_GAS_1
 E  PBAL_DSL_1
 E  PBAL_FO_1
 G  OCT_1
 L  SULF_1
 E  CBAL_SWEET_2
 E  CBAL_SOUR_2
 L  CAP_2
 E  IBAL_N_2
 E  IBAL_D_2
 E  IBAL_R_2
 E  RFBAL_2
 E  PBAL_GAS_2
 E  PBAL_DSL_2
 E  PBAL_FO_2
 G  OCT_2
 L  SULF_2
 E  CBAL_SWEET_3
 E  CBAL_SOUR_3
 L  CAP_3
 E  IBAL_N_3
 E  IBAL_D_3
 E  IBAL_R_3
 E  RFBAL_3
 E  PBAL_GAS_3
 E  PBAL_DSL_3
 E  PBAL_FO_3
 G  OCT_3
 L  SULF_3
 E  CBAL_SWEET_4
 E  CBAL_SOUR_4
 L  CAP_4
 E  IBAL_N_4
 E  IBAL_D_4
 E  IBAL_R_4
 E  RFBAL_4
 E  PBAL_GAS_4
 E  PBAL_DSL_4
 E  PBAL_FO_4
 G  OCT_4
 L  SULF_4
 E  CBAL_SWEET_5
 E  CBAL_SOUR_5
 L  CAP_5
 E  IBAL_N_5
 E  IBAL_D_5
 E  IBAL_R_5
 E  RFBAL_5
 E  PBAL_GAS_5
 E  PBAL_DSL_5
 E  PBAL_FO_5
 G  OCT_5
 L  SULF_5
 E  CBAL_SWEET_6
 E  CBAL_SOUR_6
 L  CAP_6
 E  IBAL_N_6
 E  IBAL_D_6
 E  IBAL_R_6
 E  RFBAL_6
 E  PBAL_GAS_6
 E  PBAL_DSL_6
 E  PBAL_FO_6
 G  OCT_6
 L  SULF_6
 E  CBAL_SWEET_7
 E  CBAL_SOUR_7
 L  CAP_7
 E  IBAL_N_7
 E  IBAL_D_7
 E  IBAL_R_7
 E  RFBAL_7
 E  PBAL_GAS_7
 E  PBAL_DSL_7
 E  PBAL_FO_7
 G  OCT_7
 L  SULF_7
 E  CBAL_SWEET_8
 E  CBAL_SOUR_8
 L  CAP_8
 E  IBAL_N_8
 E  IBAL_D_8
 E  IBAL_R_8
 E  RFBAL_8
 E  PBAL_GAS_8
 E  PBAL_DSL_8
 E  PBAL_FO_8
 G  OCT_8
 L  SULF_8
 E  CBAL_SWEET_9
 E  CBAL_SOUR_9
 L  CAP_9
 E  IBAL_N_9
 E  IBAL_D_9
 E  IBAL_R_9
 E  RFBAL_9
 E  PBAL_GAS_9
 E  PBAL_DSL_9
 E  PBAL_FO_9
 G  OCT_9
 L  SULF_9
 E  CBAL_SWEET_10
 E  CBAL_SOUR_10
 L  CAP_10
 E  IBAL_N_10
 E  IBAL_D_10
 E  IBAL_R_10
 E  RFBAL_10
 E  PBAL_GAS_10
 E  PBAL_DSL_10
 E  PBAL_FO_10
 G  OCT_10
 L  SULF_10
 E  CBAL_SWEET_11
 E  CBAL_SOUR_11
 L  CAP_11
 E  IBAL_N_11
 E  IBAL_D_11
 E  IBAL_R_11
 E  RFBAL_11
 E  PBAL_GAS_11
 E  PBAL_DSL_11
 E  PBAL_FO_11
 G  OCT_11
 L  SULF_11
 E  CBAL_SWEET_12
 E  CBAL_SOUR_12
 L  CAP_12
 E  IBAL_N_12
 E  IBAL_D_12
 E  IBAL_R_12
 E  RFBAL_12
 E  PBAL_GAS_12
 E  PBAL_DSL_12
 E  PBAL_FO_12
 G  OCT_12
 L  SULF_12
 E  CBAL_SWEET_13
 E  CBAL_SOUR_13
 L  CAP_13
 E  IBAL_N_13
 E  IBAL_D_13
 E  IBAL_R_13
 E  RFBAL_13
 E  PBAL_GAS_13
 E  PBAL_DSL_13
 E  PBAL_FO_13
 G  OCT_13
 L  SULF_13
 E  CBAL_SWEET_14
 E  CBAL_SOUR_14
 L  CAP_14
 E  IBAL_N_14
 E  IBAL_D_14
 E  IBAL_R_14
 E  RFBAL_14
 E  PBAL_GAS_14
 E  PBAL_DSL_14
 E  PBAL_FO_14
 G  OCT_14
 L  SULF_14
 E  CBAL_SWEET_15
 E  CBAL_SOUR_15
 L  CAP_15
 E  IBAL_N_15
 E  IBAL_D_15
 E  IBAL_R_15
 E  RFBAL_15
 E  PBAL_GAS_15
 E  PBAL_DSL_15
 E  PBAL_FO_15
 G  OCT_15
 L  SULF_15
 E  CBAL_SWEET_16
 E  CBAL_SOUR_16
 L  CAP_16
 E  IBAL_N_16
 E  IBAL_D_16
 E  IBAL_R_16
 E  RFBAL_16
 E  PBAL_GAS_16
 E  PBAL_DSL_16
 E  PBAL_FO_16
 G  OCT_16
 L  SULF_16
 E  CBAL_SWEET_17
 E  CBAL_SOUR_17
 L  CAP_17
 E  IBAL_N_17
 E  IBAL_D_17
 E  IBAL_R_17
 E  RFBAL_17
 E  PBAL_GAS_17
 E  PBAL_DSL_17
 E  PBAL_FO_17
 G  OCT_17
 L  SULF_17
 E  CBAL_SWEET_18
 E  CBAL_SOUR_18
 L  CAP_18
 E  IBAL_N_18
 E  IBAL_D_18
 E  IBAL_R_18
 E  RFBAL_18
 E  PBAL_GAS_18
 E  PBAL_DSL_18
 E  PBAL_FO_18
 G  OCT_18
 L  SULF_18
 E  CBAL_SWEET_19
 E  CBAL_SOUR_19
 L  CAP_19
 E  IBAL_N_19
 E  IBAL_D_19
 E  IBAL_R_19
 E  RFBAL_19
 E  PBAL_GAS_19
 E  PBAL_DSL_19
 E  PBAL_FO_19
 G  OCT_19
 L  SULF_19
 E  CBAL_SWEET_20
 E  CBAL_SOUR_20
 L  CAP_20
 E  IBAL_N_20
 E  IBAL_D_20
 E  IBAL_R_20
 E  RFBAL_20
 E  PBAL_GAS_20
 E  PBAL_DSL_20
 E  PBAL_FO_20
 G  OCT_20
 L  SULF_20
 E  CBAL_SWEET_21
 E  CBAL_SOUR_21
 L  CAP_21
 E  IBAL_N_21
 E  IBAL_D_21
 E  IBAL_R_21
 E  RFBAL_21
 E  PBAL_GAS_21
 E  PBAL_DSL_21
 E  PBAL_FO_21
 G  OCT_21
 L  SULF_21
 E  CBAL_SWEET_22
 E  CBAL_SOUR_22
 L  CAP_22
 E  IBAL_N_22
 E  IBAL_D_22
 E  IBAL_R_22
 E  RFBAL_22
 E  PBAL_GAS_22
 E  PBAL_DSL_22
 E  PBAL_FO_22
 G  OCT_22
 L  SULF_22
 E  CBAL_SWEET_23
 E  CBAL_SOUR_23
 L  CAP_23
 E  IBAL_N_23
 E  IBAL_D_23
 E  IBAL_R_23
 E  RFBAL_23
 E  PBAL_GAS_23
 E  PBAL_DSL_23
 E  PBAL_FO_23
 G  OCT_23
 L  SULF_23
COLUMNS
    BUY_SWEET_0  COST  76.36905696352096
    BUY_SWEET_0  CBAL_SWEET_0  1.0
    CINV_SWEET_0  COST  0.15
    CINV_SWEET_0  CBAL_SWEET_0  -1.0
    CINV_SWEET_0  CBAL_SWEET_1  1.0
    RUN_SWEET_0  CAP_0  1.0
    RUN_SWEET_0  CBAL_SWEET_0  -1.0
    RUN_SWEET_0  IBAL_D_0  0.42
    RUN_SWEET_0  IBAL_N_0  0.28
    RUN_SWEET_0  IBAL_R_0  0.28
    BUY_SOUR_0  COST  70.67203928956405
    BUY_SOUR_0  CBAL_SOUR_0  1.0
    CINV_SOUR_0  COST  0.15
    CINV_SOUR_0  CBAL_SOUR_0  -1.0
    CINV_SOUR_0  CBAL_SOUR_1  1.0
    RUN_SOUR_0  CAP_0  1.0
    RUN_SOUR_0  CBAL_SOUR_0  -1.0
    RUN_SOUR_0  IBAL_D_0  0.38
    RUN_SOUR_0  IBAL_N_0  0.2
    RUN_SOUR_0  IBAL_R_0  0.4
    IINV_N_0  COST  0.15
    IINV_N_0  IBAL_N_0  -1.0
    IINV_N_0  IBAL_N_1  1.0
    IINV_D_0  COST  0.15
    IINV_D_0  IBAL_D_0  -1.0
    IINV_D_0  IBAL_D_1  1.0
    IINV_R_0  COST  0.15
    IINV_R_0  IBAL_R_0  -1.0
    IINV_R_0  IBAL_R_1  1.0
    N_RF_0  COST  4.0
    N_RF_0  IBAL_N_0  -1.0
    N_RF_0  RFBAL_0  0.85
    N_G_0  IBAL_N_0  -1.0
    N_G_0  OCT_0  -15.0
    N_G_0  PBAL_GAS_0  1.0
    RF_G_0  OCT_0  13.0
    RF_G_0  PBAL_GAS_0  1.0
    RF_G_0  RFBAL_0  -1.0
    BU_G_0  COST  85.0
    BU_G_0  OCT_0  8.0
    BU_G_0  PBAL_GAS_0  1.0
    D_D_0  IBAL_D_0  -1.0
    D_D_0  PBAL_DSL_0  1.0
    D_D_0  SULF_0  0.2
    HD_D_0  COST  92.0
    HD_D_0  PBAL_DSL_0  1.0
    HD_D_0  SULF_0  -0.25
    R_FO_0  IBAL_R_0  -1.0
    R_FO_0  PBAL_FO_0  1.0
    SELL_GAS_0  COST  -107.49664646028066
    SELL_GAS_0  PBAL_GAS_0  -1.0
    PINV_GAS_0  COST  0.15
    PINV_GAS_0  PBAL_GAS_0  -1.0
    PINV_GAS_0  PBAL_GAS_1  1.0
    SELL_DSL_0  COST  -95.79844162552736
    SELL_DSL_0  PBAL_DSL_0  -1.0
    PINV_DSL_0  COST  0.15
    PINV_DSL_0  PBAL_DSL_0  -1.0
    PINV_DSL_0  PBAL_DSL_1  1.0
    SELL_FO_0  COST  -60.91094350667405
    SELL_FO_0  PBAL_FO_0  -1.0
    PINV_FO_0  COST  0.15
    PINV_FO_0  PBAL_FO_0  -1.0
    PINV_FO_0  PBAL_FO_1  1.0
    BUY_SWEET_1  COST  74.33303444485281
    BUY_SWEET_1  CBAL_SWEET_1  1.0
    CINV_SWEET_1  COST  0.15
    CINV_SWEET_1  CBAL_SWEET_1  -1.0
    CINV_SWEET_1  CBAL_SWEET_2  1.0
    RUN_SWEET_1  CAP_1  1.0
    RUN_SWEET_1  CBAL_SWEET_1  -1.0
    RUN_SWEET_1  IBAL_D_1  0.42
    RUN_SWEET_1  IBAL_N_1  0.28
    RUN_SWEET_1  IBAL_R_1  0.28
    BUY_SOUR_1  COST  69.01417952378037
    BUY_SOUR_1  CBAL_SOUR_1  1.0
    CINV_SOUR_1  COST  0.15
    CINV_SOUR_1  CBAL_SOUR_1  -1.0
    CINV_SOUR_1  CBAL_SOUR_2  1.0
    RUN_SOUR_1  CAP_1  1.0
    RUN_SOUR_1  CBAL_SOUR_1  -1.0
    RUN_SOUR_1  IBAL_D_1  0.38
    RUN_SOUR_1  IBAL_N_1  0.2
    RUN_SOUR_1  IBAL_R_1  0.4
    IINV_N_1  COST  0.15
    IINV_N_1  IBAL_N_1  -1.0
    IINV_N_1  IBAL_N_2  1.0
    IINV_D_1  COST  0.15
    IINV_D_1  IBAL_D_1  -1.0
    IINV_D_1  IBAL_D_2  1.0
    IINV_R_1  COST  0.15
    IINV_R_1  IBAL_R_1  -1.0
    IINV_R_1  IBAL_R_2  1.0
    N_RF_1  COST  4.0
    N_RF_1  IBAL_N_1  -1.0
    N_RF_1  RFBAL_1  0.85
    N_G_1  IBAL_N_1  -1.0
    N_G_1  OCT_1  -15.0
    N_G_1  PBAL_GAS_1  1.0
    RF_G_1  OCT_1  13.0
    RF_G_1  PBAL_GAS_1  1.0
    RF_G_1  RFBAL_1  -1.0
    BU_G_1  COST  85.0
    BU_G_1  OCT_1  8.0
    BU_G_1  PBAL_GAS_1  1.0
    D_D_1  IBAL_D_1  -1.0
    D_D_1  PBAL_DSL_1  1.0
    D_D_1  SULF_1  0.2
    HD_D_1  COST  92.0
    HD_D_1  PBAL_DSL_1  1.0
    HD_D_1  SULF_1  -0.25
    R_FO_1  IBAL_R_1  -1.0
    R_FO_1  PBAL_FO_1  1.0
    SELL_GAS_1  COST  -103.60446988068225
    SELL_GAS_1  PBAL_GAS_1  -1.0
    PINV_GAS_1  COST  0.15
    PINV_GAS_1  PBAL_GAS_1  -1.0
    PINV_GAS_1  PBAL_GAS_2  1.0
    SELL_DSL_1  COST  -99.03637882364316
    SELL_DSL_1  PBAL_DSL_1  -1.0
    PINV_DSL_1  COST  0.15
    PINV_DSL_1  PBAL_DSL_1  -1.0
    PINV_DSL_1  PBAL_DSL_2  1.0
    SELL_FO_1  COST  -62.33800968078883
    SELL_FO_1  PBAL_FO_1  -1.0
    PINV_FO_1  COST  0.15
    PINV_FO_1  PBAL_FO_1  -1.0
    PINV_FO_1  PBAL_FO_2  1.0
    BUY_SWEET_2  COST  76.12216908587823
    BUY_SWEET_2  CBAL_SWEET_2  1.0
    CINV_SWEET_2  COST  0.15
    CINV_SWEET_2  CBAL_SWEET_2  -1.0
    CINV_SWEET_2  CBAL_SWEET_3  1.0
    RUN_SWEET_2  CAP_2  1.0
    RUN_SWEET_2  CBAL_SWEET_2  -1.0
    RUN_SWEET_2  IBAL_D_2  0.42
    RUN_SWEET_2  IBAL_N_2  0.28
    RUN_SWEET_2  IBAL_R_2  0.28
    BUY_SOUR_2  COST  66.52797055604496
    BUY_SOUR_2  CBAL_SOUR_2  1.0
    CINV_SOUR_2  COST  0.15
    CINV_SOUR_2  CBAL_SOUR_2  -1.0
    CINV_SOUR_2  CBAL_SOUR_3  1.0
    RUN_SOUR_2  CAP_2  1.0
    RUN_SOUR_2  CBAL_SOUR_2  -1.0
    RUN_SOUR_2  IBAL_D_2  0.38
    RUN_SOUR_2  IBAL_N_2  0.2
    RUN_SOUR_2  IBAL_R_2  0.4
    IINV_N_2  COST  0.15
    IINV_N_2  IBAL_N_2  -1.0
    IINV_N_2  IBAL_N_3  1.0
    IINV_D_2  COST  0.15
    IINV_D_2  IBAL_D_2  -1.0
    IINV_D_2  IBAL_D_3  1.0
    IINV_R_2  COST  0.15
    IINV_R_2  IBAL_R_2  -1.0
    IINV_R_2  IBAL_R_3  1.0
    N_RF_2  COST  4.0
    N_RF_2  IBAL_N_2  -1.0
    N_RF_2  RFBAL_2  0.85
    N_G_2  IBAL_N_2  -1.0
    N_G_2  OCT_2  -15.0
    N_G_2  PBAL_GAS_2  1.0
    RF_G_2  OCT_2  13.0
    RF_G_2  PBAL_GAS_2  1.0
    RF_G_2  RFBAL_2  -1.0
    BU_G_2  COST  85.0
    BU_G_2  OCT_2  8.0
    BU_G_2  PBAL_GAS_2  1.0
    D_D_2  IBAL_D_2  -1.0
    D_D_2  PBAL_DSL_2  1.0
    D_D_2  SULF_2  0.2
    HD_D_2  COST  92.0
    HD_D_2  PBAL_DSL_2  1.0
    HD_D_2  SULF_2  -0.25
    R_FO_2  IBAL_R_2  -1.0
    R_FO_2  PBAL_FO_2  1.0
    SELL_GAS_2  COST  -106.21676888537186
    SELL_GAS_2  PBAL_GAS_2  -1.0
    PINV_GAS_2  COST  0.15
    PINV_GAS_2  PBAL_GAS_2  -1.0
    PINV_GAS_2  PBAL_GAS_3  1.0
    SELL_DSL_2  COST  -97.64986785990395
    SELL_DSL_2  PBAL_DSL_2  -1.0
    PINV_DSL_2  COST  0.15
    PINV_DSL_2  PBAL_DSL_2  -1.0
    PINV_DSL_2  PBAL_DSL_3  1.0
    SELL_FO_2  COST  -60.723547987126864
    SELL_FO_2  PBAL_FO_2  -1.0
    PINV_FO_2  COST  0.15
    PINV_FO_2  PBAL_FO_2  -1.0
    PINV_FO_2  PBAL_FO_3  1.0
    BUY_SWEET_3  COST  76.4896355525342
    BUY_SWEET_3  CBAL_SWEET_3  1.0
    CINV_SWEET_3  COST  0.15
    CINV_SWEET_3  CBAL_SWEET_3  -1.0
    CINV_SWEET_3  CBAL_SWEET_4  1.0
    RUN_SWEET_3  CAP_3  1.0
    RUN_SWEET_3  CBAL_SWEET_3  -1.0
    RUN_SWEET_3  IBAL_D_3  0.42
    RUN_SWEET_3  IBAL_N_3  0.28
    RUN_SWEET_3  IBAL_R_3  0.28
    BUY_SOUR_3  COST  67.2382045513784
    BUY_SOUR_3  CBAL_SOUR_3  1.0
    CINV_SOUR_3  COST  0.15
    CINV_SOUR_3  CBAL_SOUR_3  -1.0
    CINV_SOUR_3  CBAL_SOUR_4  1.0
    RUN_SOUR_3  CAP_3  1.0
    RUN_SOUR_3  CBAL_SOUR_3  -1.0
    RUN_SOUR_3  IBAL_D_3  0.38
    RUN_SOUR_3  IBAL_N_3  0.2
    RUN_SOUR_3  IBAL_R_3  0.4
    IINV_N_3  COST  0.15
    IINV_N_3  IBAL_N_3  -1.0
    IINV_N_3  IBAL_N_4  1.0
    IINV_D_3  COST  0.15
    IINV_D_3  IBAL_D_3  -1.0
    IINV_D_3  IBAL_D_4  1.0
    IINV_R_3  COST  0.15
    IINV_R_3  IBAL_R_3  -1.0
    IINV_R_3  IBAL_R_4  1.0
    N_RF_3  COST  4.0
    N_RF_3  IBAL_N_3  -1.0
    N_RF_3  RFBAL_3  0.85
    N_G_3  IBAL_N_3  -1.0
    N_G_3  OCT_3  -15.0
    N_G_3  PBAL_GAS_3  1.0
    RF_G_3  OCT_3  13.0
    RF_G_3  PBAL_GAS_3  1.0
    RF_G_3  RFBAL_3  -1.0
    BU_G_3  COST  85.0
    BU_G_3  OCT_3  8.0
    BU_G_3  PBAL_GAS_3  1.0
    D_D_3  IBAL_D_3  -1.0
    D_D_3  PBAL_DSL_3  1.0
    D_D_3  SULF_3  0.2
    HD_D_3  COST  92.0
    HD_D_3  PBAL_DSL_3  1.0
    HD_D_3  SULF_3  -0.25
    R_FO_3  IBAL_R_3  -1.0
    R_FO_3  PBAL_FO_3  1.0
    SELL_GAS_3  COST  -107.74921699412072
    SELL_GAS_3  PBAL_GAS_3  -1.0
    PINV_GAS_3  COST  0.15
    PINV_GAS_3  PBAL_GAS_3  -1.0
    PINV_GAS_3  PBAL_GAS_4  1.0
    SELL_DSL_3  COST  -100.79885308414084
    SELL_DSL_3  PBAL_DSL_3  -1.0
    PINV_DSL_3  COST  0.15
    PINV_DSL_3  PBAL_DSL_3  -1.0
    PINV_DSL_3  PBAL_DSL_4  1.0
    SELL_FO_3  COST  -62.641267274395666
    SELL_FO_3  PBAL_FO_3  -1.0
    PINV_FO_3  COST  0.15
    PINV_FO_3  PBAL_FO_3  -1.0
    PINV_FO_3  PBAL_FO_4  1.0
    BUY_SWEET_4  COST  77.04835352236533
    BUY_SWEET_4  CBAL_SWEET_4  1.0
    CINV_SWEET_4  COST  0.15
    CINV_SWEET_4  CBAL_SWEET_4  -1.0
    CINV_SWEET_4  CBAL_SWEET_5  1.0
    RUN_SWEET_4  CAP_4  1.0
    RUN_SWEET_4  CBAL_SWEET_4  -1.0
    RUN_SWEET_4  IBAL_D_4  0.42
    RUN_SWEET_4  IBAL_N_4  0.28
    RUN_SWEET_4  IBAL_R_4  0.28
    BUY_SOUR_4  COST  69.04319413716004
    BUY_SOUR_4  CBAL_SOUR_4  1.0
    CINV_SOUR_4  COST  0.15
    CINV_SOUR_4  CBAL_SOUR_4  -1.0
    CINV_SOUR_4  CBAL_SOUR_5  1.0
    RUN_SOUR_4  CAP_4  1.0
    RUN_SOUR_4  CBAL_SOUR_4  -1.0
    RUN_SOUR_4  IBAL_D_4  0.38
    RUN_SOUR_4  IBAL_N_4  0.2
    RUN_SOUR_4  IBAL_R_4  0.4
    IINV_N_4  COST  0.15
    IINV_N_4  IBAL_N_4  -1.0
    IINV_N_4  IBAL_N_5  1.0
    IINV_D_4  COST  0.15
    IINV_D_4  IBAL_D_4  -1.0
    IINV_D_4  IBAL_D_5  1.0
    IINV_R_4  COST  0.15
    IINV_R_4  IBAL_R_4  -1.0
    IINV_R_4  IBAL_R_5  1.0
    N_RF_4  COST  4.0
    N_RF_4  IBAL_N_4  -1.0
    N_RF_4  RFBAL_4  0.85
    N_G_4  IBAL_N_4  -1.0
    N_G_4  OCT_4  -15.0
    N_G_4  PBAL_GAS_4  1.0
    RF_G_4  OCT_4  13.0
    RF_G_4  PBAL_GAS_4  1.0
    RF_G_4  RFBAL_4  -1.0
    BU_G_4  COST  85.0
    BU_G_4  OCT_4  8.0
    BU_G_4  PBAL_GAS_4  1.0
    D_D_4  IBAL_D_4  -1.0
    D_D_4  PBAL_DSL_4  1.0
    D_D_4  SULF_4  0.2
    HD_D_4  COST  92.0
    HD_D_4  PBAL_DSL_4  1.0
    HD_D_4  SULF_4  -0.25
    R_FO_4  IBAL_R_4  -1.0
    R_FO_4  PBAL_FO_4  1.0
    SELL_GAS_4  COST  -105.36439680304724
    SELL_GAS_4  PBAL_GAS_4  -1.0
    PINV_GAS_4  COST  0.15
    PINV_GAS_4  PBAL_GAS_4  -1.0
    PINV_GAS_4  PBAL_GAS_5  1.0
    SELL_DSL_4  COST  -97.18600080680795
    SELL_DSL_4  PBAL_DSL_4  -1.0
    PINV_DSL_4  COST  0.15
    PINV_DSL_4  PBAL_DSL_4  -1.0
    PINV_DSL_4  PBAL_DSL_5  1.0
    SELL_FO_4  COST  -60.97720275800417
    SELL_FO_4  PBAL_FO_4  -1.0
    PINV_FO_4  COST  0.15
    PINV_FO_4  PBAL_FO_4  -1.0
    PINV_FO_4  PBAL_FO_5  1.0
    BUY_SWEET_5  COST  76.20003751035827
    BUY_SWEET_5  CBAL_SWEET_5  1.0
    CINV_SWEET_5  COST  0.15
    CINV_SWEET_5  CBAL_SWEET_5  -1.0
    CINV_SWEET_5  CBAL_SWEET_6  1.0
    RUN_SWEET_5  CAP_5  1.0
    RUN_SWEET_5  CBAL_SWEET_5  -1.0
    RUN_SWEET_5  IBAL_D_5  0.42
    RUN_SWEET_5  IBAL_N_5  0.28
    RUN_SWEET_5  IBAL_R_5  0.28
    BUY_SOUR_5  COST  67.71226751539625
    BUY_SOUR_5  CBAL_SOUR_5  1.0
    CINV_SOUR_5  COST  0.15
    CINV_SOUR_5  CBAL_SOUR_5  -1.0
    CINV_SOUR_5  CBAL_SOUR_6  1.0
    RUN_SOUR_5  CAP_5  1.0
    RUN_SOUR_5  CBAL_SOUR_5  -1.0
    RUN_SOUR_5  IBAL_D_5  0.38
    RUN_SOUR_5  IBAL_N_5  0.2
    RUN_SOUR_5  IBAL_R_5  0.4
    IINV_N_5  COST  0.15
    IINV_N_5  IBAL_N_5  -1.0
    IINV_N_5  IBAL_N_6  1.0
    IINV_D_5  COST  0.15
    IINV_D_5  IBAL_D_5  -1.0
    IINV_D_5  IBAL_D_6  1.0
    IINV_R_5  COST  0.15
    IINV_R_5  IBAL_R_5  -1.0
    IINV_R_5  IBAL_R_6  1.0
    N_RF_5  COST  4.0
    N_RF_5  IBAL_N_5  -1.0
    N_RF_5  RFBAL_5  0.85
    N_G_5  IBAL_N_5  -1.0
    N_G_5  OCT_5  -15.0
    N_G_5  PBAL_GAS_5  1.0
    RF_G_5  OCT_5  13.0
    RF_G_5  PBAL_GAS_5  1.0
    RF_G_5  RFBAL_5  -1.0
    BU_G_5  COST  85.0
    BU_G_5  OCT_5  8.0
    BU_G_5  PBAL_GAS_5  1.0
    D_D_5  IBAL_D_5  -1.0
    D_D_5  PBAL_DSL_5  1.0
    D_D_5  SULF_5  0.2
    HD_D_5  COST  92.0
    HD_D_5  PBAL_DSL_5  1.0
    HD_D_5  SULF_5  -0.25
    R_FO_5  IBAL_R_5  -1.0
    R_FO_5  PBAL_FO_5  1.0
    SELL_GAS_5  COST  -107.27136365156564
    SELL_GAS_5  PBAL_GAS_5  -1.0
    PINV_GAS_5  COST  0.15
    PINV_GAS_5  PBAL_GAS_5  -1.0
    PINV_GAS_5  PBAL_GAS_6  1.0
    SELL_DSL_5  COST  -98.50716707827078
    SELL_DSL_5  PBAL_DSL_5  -1.0
    PINV_DSL_5  COST  0.15
    PINV_DSL_5  PBAL_DSL_5  -1.0
    PINV_DSL_5  PBAL_DSL_6  1.0
    SELL_FO_5  COST  -61.19457484824782
    SELL_FO_5  PBAL_FO_5  -1.0
    PINV_FO_5  COST  0.15
    PINV_FO_5  PBAL_FO_5  -1.0
    PINV_FO_5  PBAL_FO_6  1.0
    BUY_SWEET_6  COST  75.70220068791889
    BUY_SWEET_6  CBAL_SWEET_6  1.0
    CINV_SWEET_6  COST  0.15
    CINV_SWEET_6  CBAL_SWEET_6  -1.0
    CINV_SWEET_6  CBAL_SWEET_7  1.0
    RUN_SWEET_6  CAP_6  1.0
    RUN_SWEET_6  CBAL_SWEET_6  -1.0
    RUN_SWEET_6  IBAL_D_6  0.42
    RUN_SWEET_6  IBAL_N_6  0.28
    RUN_SWEET_6  IBAL_R_6  0.28
    BUY_SOUR_6  COST  68.0954384067586
    BUY_SOUR_6  CBAL_SOUR_6  1.0
    CINV_SOUR_6  COST  0.15
    CINV_SOUR_6  CBAL_SOUR_6  -1.0
    CINV_SOUR_6  CBAL_SOUR_7  1.0
    RUN_SOUR_6  CAP_6  1.0
    RUN_SOUR_6  CBAL_SOUR_6  -1.0
    RUN_SOUR_6  IBAL_D_6  0.38
    RUN_SOUR_6  IBAL_N_6  0.2
    RUN_SOUR_6  IBAL_R_6  0.4
    IINV_N_6  COST  0.15
    IINV_N_6  IBAL_N_6  -1.0
    IINV_N_6  IBAL_N_7  1.0
    IINV_D_6  COST  0.15
    IINV_D_6  IBAL_D_6  -1.0
    IINV_D_6  IBAL_D_7  1.0
    IINV_R_6  COST  0.15
    IINV_R_6  IBAL_R_6  -1.0
    IINV_R_6  IBAL_R_7  1.0
    N_RF_6  COST  4.0
    N_RF_6  IBAL_N_6  -1.0
    N_RF_6  RFBAL_6  0.85
    N_G_6  IBAL_N_6  -1.0
    N_G_6  OCT_6  -15.0
    N_G_6  PBAL_GAS_6  1.0
    RF_G_6  OCT_6  13.0
    RF_G_6  PBAL_GAS_6  1.0
    RF_G_6  RFBAL_6  -1.0
    BU_G_6  COST  85.0
    BU_G_6  OCT_6  8.0
    BU_G_6  PBAL_GAS_6  1.0
    D_D_6  IBAL_D_6  -1.0
    D_D_6  PBAL_DSL_6  1.0
    D_D_6  SULF_6  0.2
    HD_D_6  COST  92.0
    HD_D_6  PBAL_DSL_6  1.0
    HD_D_6  SULF_6  -0.25
    R_FO_6  IBAL_R_6  -1.0
    R_FO_6  PBAL_FO_6  1.0
    SELL_GAS_6  COST  -102.39954502331906
    SELL_GAS_6  PBAL_GAS_6  -1.0
    PINV_GAS_6  COST  0.15
    PINV_GAS_6  PBAL_GAS_6  -1.0
    PINV_GAS_6  PBAL_GAS_7  1.0
    SELL_DSL_6  COST  -97.90348293022733
    SELL_DSL_6  PBAL_DSL_6  -1.0
    PINV_DSL_6  COST  0.15
    PINV_DSL_6  PBAL_DSL_6  -1.0
    PINV_DSL_6  PBAL_DSL_7  1.0
    SELL_FO_6  COST  -61.48729551008274
    SELL_FO_6  PBAL_FO_6  -1.0
    PINV_FO_6  COST  0.15
    PINV_FO_6  PBAL_FO_6  -1.0
    PINV_FO_6  PBAL_FO_7  1.0
    BUY_SWEET_7  COST  79.49052479047496
    BUY_SWEET_7  CBAL_SWEET_7  1.0
    CINV_SWEET_7  COST  0.15
    CINV_SWEET_7  CBAL_SWEET_7  -1.0
    CINV_SWEET_7  CBAL_SWEET_8  1.0
    RUN_SWEET_7  CAP_7  1.0
    RUN_SWEET_7  CBAL_SWEET_7  -1.0
    RUN_SWEET_7  IBAL_D_7  0.42
    RUN_SWEET_7  IBAL_N_7  0.28
    RUN_SWEET_7  IBAL_R_7  0.28
    BUY_SOUR_7  COST  67.1404808442127
    BUY_SOUR_7  CBAL_SOUR_7  1.0
    CINV_SOUR_7  COST  0.15
    CINV_SOUR_7  CBAL_SOUR_7  -1.0
    CINV_SOUR_7  CBAL_SOUR_8  1.0
    RUN_SOUR_7  CAP_7  1.0
    RUN_SOUR_7  CBAL_SOUR_7  -1.0
    RUN_SOUR_7  IBAL_D_7  0.38
    RUN_SOUR_7  IBAL_N_7  0.2
    RUN_SOUR_7  IBAL_R_7  0.4
    IINV_N_7  COST  0.15
    IINV_N_7  IBAL_N_7  -1.0
    IINV_N_7  IBAL_N_8  1.0
    IINV_D_7  COST  0.15
    IINV_D_7  IBAL_D_7  -1.0
    IINV_D_7  IBAL_D_8  1.0
    IINV_R_7  COST  0.15
    IINV_R_7  IBAL_R_7  -1.0
    IINV_R_7  IBAL_R_8  1.0
    N_RF_7  COST  4.0
    N_RF_7  IBAL_N_7  -1.0
    N_RF_7  RFBAL_7  0.85
    N_G_7  IBAL_N_7  -1.0
    N_G_7  OCT_7  -15.0
    N_G_7  PBAL_GAS_7  1.0
    RF_G_7  OCT_7  13.0
    RF_G_7  PBAL_GAS_7  1.0
    RF_G_7  RFBAL_7  -1.0
    BU_G_7  COST  85.0
    BU_G_7  OCT_7  8.0
    BU_G_7  PBAL_GAS_7  1.0
    D_D_7  IBAL_D_7  -1.0
    D_D_7  PBAL_DSL_7  1.0
    D_D_7  SULF_7  0.2
    HD_D_7  COST  92.0
    HD_D_7  PBAL_DSL_7  1.0
    HD_D_7  SULF_7  -0.25
    R_FO_7  IBAL_R_7  -1.0
    R_FO_7  PBAL_FO_7  1.0
    SELL_GAS_7  COST  -106.0592492698322
    SELL_GAS_7  PBAL_GAS_7  -1.0
    PINV_GAS_7  COST  0.15
    PINV_GAS_7  PBAL_GAS_7  -1.0
    PINV_GAS_7  PBAL_GAS_8  1.0
    SELL_DSL_7  COST  -97.05831014406608
    SELL_DSL_7  PBAL_DSL_7  -1.0
    PINV_DSL_7  COST  0.15
    PINV_DSL_7  PBAL_DSL_7  -1.0
    PINV_DSL_7  PBAL_DSL_8  1.0
    SELL_FO_7  COST  -62.27079319591221
    SELL_FO_7  PBAL_FO_7  -1.0
    PINV_FO_7  COST  0.15
    PINV_FO_7  PBAL_FO_7  -1.0
    PINV_FO_7  PBAL_FO_8  1.0
    BUY_SWEET_8  COST  74.57992566047352
    BUY_SWEET_8  CBAL_SWEET_8  1.0
    CINV_SWEET_8  COST  0.15
    CINV_SWEET_8  CBAL_SWEET_8  -1.0
    CINV_SWEET_8  CBAL_SWEET_9  1.0
    RUN_SWEET_8  CAP_8  1.0
    RUN_SWEET_8  CBAL_SWEET_8  -1.0
    RUN_SWEET_8  IBAL_D_8  0.42
    RUN_SWEET_8  IBAL_N_8  0.28
    RUN_SWEET_8  IBAL_R_8  0.28
    BUY_SOUR_8  COST  71.20689772198025
    BUY_SOUR_8  CBAL_SOUR_8  1.0
    CINV_SOUR_8  COST  0.15
    CINV_SOUR_8  CBAL_SOUR_8  -1.0
    CINV_SOUR_8  CBAL_SOUR_9  1.0
    RUN_SOUR_8  CAP_8  1.0
    RUN_SOUR_8  CBAL_SOUR_8  -1.0
    RUN_SOUR_8  IBAL_D_8  0.38
    RUN_SOUR_8  IBAL_N_8  0.2
    RUN_SOUR_8  IBAL_R_8  0.4
    IINV_N_8  COST  0.15
    IINV_N_8  IBAL_N_8  -1.0
    IINV_N_8  IBAL_N_9  1.0
    IINV_D_8  COST  0.15
    IINV_D_8  IBAL_D_8  -1.0
    IINV_D_8  IBAL_D_9  1.0
    IINV_R_8  COST  0.15
    IINV_R_8  IBAL_R_8  -1.0
    IINV_R_8  IBAL_R_9  1.0
    N_RF_8  COST  4.0
    N_RF_8  IBAL_N_8  -1.0
    N_RF_8  RFBAL_8  0.85
    N_G_8  IBAL_N_8  -1.0
    N_G_8  OCT_8  -15.0
    N_G_8  PBAL_GAS_8  1.0
    RF_G_8  OCT_8  13.0
    RF_G_8  PBAL_GAS_8  1.0
    RF_G_8  RFBAL_8  -1.0
    BU_G_8  COST  85.0
    BU_G_8  OCT_8  8.0
    BU_G_8  PBAL_GAS_8  1.0
    D_D_8  IBAL_D_8  -1.0
    D_D_8  PBAL_DSL_8  1.0
    D_D_8  SULF_8  0.2
    HD_D_8  COST  92.0
    HD_D_8  PBAL_DSL_8  1.0
    HD_D_8  SULF_8  -0.25
    R_FO_8  IBAL_R_8  -1.0
    R_FO_8  PBAL_FO_8  1.0
    SELL_GAS_8  COST  -103.30268048743696
    SELL_GAS_8  PBAL_GAS_8  -1.0
    PINV_GAS_8  COST  0.15
    PINV_GAS_8  PBAL_GAS_8  -1.0
    PINV_GAS_8  PBAL_GAS_9  1.0
    SELL_DSL_8  COST  -99.12588776437029
    SELL_DSL_8  PBAL_DSL_8  -1.0
    PINV_DSL_8  COST  0.15
    PINV_DSL_8  PBAL_DSL_8  -1.0
    PINV_DSL_8  PBAL_DSL_9  1.0
    SELL_FO_8  COST  -62.559773912555116
    SELL_FO_8  PBAL_FO_8  -1.0
    PINV_FO_8  COST  0.15
    PINV_FO_8  PBAL_FO_8  -1.0
    PINV_FO_8  PBAL_FO_9  1.0
    BUY_SWEET_9  COST  78.75397744189452
    BUY_SWEET_9  CBAL_SWEET_9  1.0
    CINV_SWEET_9  COST  0.15
    CINV_SWEET_9  CBAL_SWEET_10  1.0
    CINV_SWEET_9  CBAL_SWEET_9  -1.0
    RUN_SWEET_9  CAP_9  1.0
    RUN_SWEET_9  CBAL_SWEET_9  -1.0
    RUN_SWEET_9  IBAL_D_9  0.42
    RUN_SWEET_9  IBAL_N_9  0.28
    RUN_SWEET_9  IBAL_R_9  0.28
    BUY_SOUR_9  COST  65.09342253719119
    BUY_SOUR_9  CBAL_SOUR_9  1.0
    CINV_SOUR_9  COST  0.15
    CINV_SOUR_9  CBAL_SOUR_10  1.0
    CINV_SOUR_9  CBAL_SOUR_9  -1.0
    RUN_SOUR_9  CAP_9  1.0
    RUN_SOUR_9  CBAL_SOUR_9  -1.0
    RUN_SOUR_9  IBAL_D_9  0.38
    RUN_SOUR_9  IBAL_N_9  0.2
    RUN_SOUR_9  IBAL_R_9  0.4
    IINV_N_9  COST  0.15
    IINV_N_9  IBAL_N_10  1.0
    IINV_N_9  IBAL_N_9  -1.0
    IINV_D_9  COST  0.15
    IINV_D_9  IBAL_D_10  1.0
    IINV_D_9  IBAL_D_9  -1.0
    IINV_R_9  COST  0.15
    IINV_R_9  IBAL_R_10  1.0
    IINV_R_9  IBAL_R_9  -1.0
    N_RF_9  COST  4.0
    N_RF_9  IBAL_N_9  -1.0
    N_RF_9  RFBAL_9  0.85
    N_G_9  IBAL_N_9  -1.0
    N_G_9  OCT_9  -15.0
    N_G_9  PBAL_GAS_9  1.0
    RF_G_9  OCT_9  13.0
    RF_G_9  PBAL_GAS_9  1.0
    RF_G_9  RFBAL_9  -1.0
    BU_G_9  COST  85.0
    BU_G_9  OCT_9  8.0
    BU_G_9  PBAL_GAS_9  1.0
    D_D_9  IBAL_D_9  -1.0
    D_D_9  PBAL_DSL_9  1.0
    D_D_9  SULF_9  0.2
    HD_D_9  COST  92.0
    HD_D_9  PBAL_DSL_9  1.0
    HD_D_9  SULF_9  -0.25
    R_FO_9  IBAL_R_9  -1.0
    R_FO_9  PBAL_FO_9  1.0
    SELL_GAS_9  COST  -103.10354896567159
    SELL_GAS_9  PBAL_GAS_9  -1.0
    PINV_GAS_9  COST  0.15
    PINV_GAS_9  PBAL_GAS_10  1.0
    PINV_GAS_9  PBAL_GAS_9  -1.0
    SELL_DSL_9  COST  -95.95294266241021
    SELL_DSL_9  PBAL_DSL_9  -1.0
    PINV_DSL_9  COST  0.15
    PINV_DSL_9  PBAL_DSL_10  1.0
    PINV_DSL_9  PBAL_DSL_9  -1.0
    SELL_FO_9  COST  -60.51238816184297
    SELL_FO_9  PBAL_FO_9  -1.0
    PINV_FO_9  COST  0.15
    PINV_FO_9  PBAL_FO_10  1.0
    PINV_FO_9  PBAL_FO_9  -1.0
    BUY_SWEET_10  COST  75.56495563440625
    BUY_SWEET_10  CBAL_SWEET_10  1.0
    CINV_SWEET_10  COST  0.15
    CINV_SWEET_10  CBAL_SWEET_10  -1.0
    CINV_SWEET_10  CBAL_SWEET_11  1.0
    RUN_SWEET_10  CAP_10  1.0
    RUN_SWEET_10  CBAL_SWEET_10  -1.0
    RUN_SWEET_10  IBAL_D_10  0.42
    RUN_SWEET_10  IBAL_N_10  0.28
    RUN_SWEET_10  IBAL_R_10  0.28
    BUY_SOUR_10  COST  69.2349600958905
    BUY_SOUR_10  CBAL_SOUR_10  1.0
    CINV_SOUR_10  COST  0.15
    CINV_SOUR_10  CBAL_SOUR_10  -1.0
    CINV_SOUR_10  CBAL_SOUR_11  1.0
    RUN_SOUR_10  CAP_10  1.0
    RUN_SOUR_10  CBAL_SOUR_10  -1.0
    RUN_SOUR_10  IBAL_D_10  0.38
    RUN_SOUR_10  IBAL_N_10  0.2
    RUN_SOUR_10  IBAL_R_10  0.4
    IINV_N_10  COST  0.15
    IINV_N_10  IBAL_N_10  -1.0
    IINV_N_10  IBAL_N_11  1.0
    IINV_D_10  COST  0.15
    IINV_D_10  IBAL_D_10  -1.0
    IINV_D_10  IBAL_D_11  1.0
    IINV_R_10  COST  0.15
    IINV_R_10  IBAL_R_10  -1.0
    IINV_R_10  IBAL_R_11  1.0
    N_RF_10  COST  4.0
    N_RF_10  IBAL_N_10  -1.0
    N_RF_10  RFBAL_10  0.85
    N_G_10  IBAL_N_10  -1.0
    N_G_10  OCT_10  -15.0
    N_G_10  PBAL_GAS_10  1.0
    RF_G_10  OCT_10  13.0
    RF_G_10  PBAL_GAS_10  1.0
    RF_G_10  RFBAL_10  -1.0
    BU_G_10  COST  85.0
    BU_G_10  OCT_10  8.0
    BU_G_10  PBAL_GAS_10  1.0
    D_D_10  IBAL_D_10  -1.0
    D_D_10  PBAL_DSL_10  1.0
    D_D_10  SULF_10  0.2
    HD_D_10  COST  92.0
    HD_D_10  PBAL_DSL_10  1.0
    HD_D_10  SULF_10  -0.25
    R_FO_10  IBAL_R_10  -1.0
    R_FO_10  PBAL_FO_10  1.0
    SELL_GAS_10  COST  -105.25842394216654
    SELL_GAS_10  PBAL_GAS_10  -1.0
    PINV_GAS_10  COST  0.15
    PINV_GAS_10  PBAL_GAS_10  -1.0
    PINV_GAS_10  PBAL_GAS_11  1.0
    SELL_DSL_10  COST  -99.21822193275042
    SELL_DSL_10  PBAL_DSL_10  -1.0
    PINV_DSL_10  COST  0.15
    PINV_DSL_10  PBAL_DSL_10  -1.0
    PINV_DSL_10  PBAL_DSL_11  1.0
    SELL_FO_10  COST  -61.12165841594335
    SELL_FO_10  PBAL_FO_10  -1.0
    PINV_FO_10  COST  0.15
    PINV_FO_10  PBAL_FO_10  -1.0
    PINV_FO_10  PBAL_FO_11  1.0
    BUY_SWEET_11  COST  79.76529208773869
    BUY_SWEET_11  CBAL_SWEET_11  1.0
    CINV_SWEET_11  COST  0.15
    CINV_SWEET_11  CBAL_SWEET_11  -1.0
    CINV_SWEET_11  CBAL_SWEET_12  1.0
    RUN_SWEET_11  CAP_11  1.0
    RUN_SWEET_11  CBAL_SWEET_11  -1.0
    RUN_SWEET_11  IBAL_D_11  0.42
    RUN_SWEET_11  IBAL_N_11  0.28
    RUN_SWEET_11  IBAL_R_11  0.28
    BUY_SOUR_11  COST  70.32630166396119
    BUY_SOUR_11  CBAL_SOUR_11  1.0
    CINV_SOUR_11  COST  0.15
    CINV_SOUR_11  CBAL_SOUR_11  -1.0
    CINV_SOUR_11  CBAL_SOUR_12  1.0
    RUN_SOUR_11  CAP_11  1.0
    RUN_SOUR_11  CBAL_SOUR_11  -1.0
    RUN_SOUR_11  IBAL_D_11  0.38
    RUN_SOUR_11  IBAL_N_11  0.2
    RUN_SOUR_11  IBAL_R_11  0.4
    IINV_N_11  COST  0.15
    IINV_N_11  IBAL_N_11  -1.0
    IINV_N_11  IBAL_N_12  1.0
    IINV_D_11  COST  0.15
    IINV_D_11  IBAL_D_11  -1.0
    IINV_D_11  IBAL_D_12  1.0
    IINV_R_11  COST  0.15
    IINV_R_11  IBAL_R_11  -1.0
    IINV_R_11  IBAL_R_12  1.0
    N_RF_11  COST  4.0
    N_RF_11  IBAL_N_11  -1.0
    N_RF_11  RFBAL_11  0.85
    N_G_11  IBAL_N_11  -1.0
    N_G_11  OCT_11  -15.0
    N_G_11  PBAL_GAS_11  1.0
    RF_G_11  OCT_11  13.0
    RF_G_11  PBAL_GAS_11  1.0
    RF_G_11  RFBAL_11  -1.0
    BU_G_11  COST  85.0
    BU_G_11  OCT_11  8.0
    BU_G_11  PBAL_GAS_11  1.0
    D_D_11  IBAL_D_11  -1.0
    D_D_11  PBAL_DSL_11  1.0
    D_D_11  SULF_11  0.2
    HD_D_11  COST  92.0
    HD_D_11  PBAL_DSL_11  1.0
    HD_D_11  SULF_11  -0.25
    R_FO_11  IBAL_R_11  -1.0
    R_FO_11  PBAL_FO_11  1.0
    SELL_GAS_11  COST  -106.54193963757345
    SELL_GAS_11  PBAL_GAS_11  -1.0
    PINV_GAS_11  COST  0.15
    PINV_GAS_11  PBAL_GAS_11  -1.0
    PINV_GAS_11  PBAL_GAS_12  1.0
    SELL_DSL_11  COST  -98.94271632962972
    SELL_DSL_11  PBAL_DSL_11  -1.0
    PINV_DSL_11  COST  0.15
    PINV_DSL_11  PBAL_DSL_11  -1.0
    PINV_DSL_11  PBAL_DSL_12  1.0
    SELL_FO_11  COST  -63.53998799326208
    SELL_FO_11  PBAL_FO_11  -1.0
    PINV_FO_11  COST  0.15
    PINV_FO_11  PBAL_FO_11  -1.0
    PINV_FO_11  PBAL_FO_12  1.0
    BUY_SWEET_12  COST  78.41218767057347
    BUY_SWEET_12  CBAL_SWEET_12  1.0
    CINV_SWEET_12  COST  0.15
    CINV_SWEET_12  CBAL_SWEET_12  -1.0
    CINV_SWEET_12  CBAL_SWEET_13  1.0
    RUN_SWEET_12  CAP_12  1.0
    RUN_SWEET_12  CBAL_SWEET_12  -1.0
    RUN_SWEET_12  IBAL_D_12  0.42
    RUN_SWEET_12  IBAL_N_12  0.28
    RUN_SWEET_12  IBAL_R_12  0.28
    BUY_SOUR_12  COST  65.9060916154765
    BUY_SOUR_12  CBAL_SOUR_12  1.0
    CINV_SOUR_12  COST  0.15
    CINV_SOUR_12  CBAL_SOUR_12  -1.0
    CINV_SOUR_12  CBAL_SOUR_13  1.0
    RUN_SOUR_12  CAP_12  1.0
    RUN_SOUR_12  CBAL_SOUR_12  -1.0
    RUN_SOUR_12  IBAL_D_12  0.38
    RUN_SOUR_12  IBAL_N_12  0.2
    RUN_SOUR_12  IBAL_R_12  0.4
    IINV_N_12  COST  0.15
    IINV_N_12  IBAL_N_12  -1.0
    IINV_N_12  IBAL_N_13  1.0
    IINV_D_12  COST  0.15
    IINV_D_12  IBAL_D_12  -1.0
    IINV_D_12  IBAL_D_13  1.0
    IINV_R_12  COST  0.15
    IINV_R_12  IBAL_R_12  -1.0
    IINV_R_12  IBAL_R_13  1.0
    N_RF_12  COST  4.0
    N_RF_12  IBAL_N_12  -1.0
    N_RF_12  RFBAL_12  0.85
    N_G_12  IBAL_N_12  -1.0
    N_G_12  OCT_12  -15.0
    N_G_12  PBAL_GAS_12  1.0
    RF_G_12  OCT_12  13.0
    RF_G_12  PBAL_GAS_12  1.0
    RF_G_12  RFBAL_12  -1.0
    BU_G_12  COST  85.0
    BU_G_12  OCT_12  8.0
    BU_G_12  PBAL_GAS_12  1.0
    D_D_12  IBAL_D_12  -1.0
    D_D_12  PBAL_DSL_12  1.0
    D_D_12  SULF_12  0.2
    HD_D_12  COST  92.0
    HD_D_12  PBAL_DSL_12  1.0
    HD_D_12  SULF_12  -0.25
    R_FO_12  IBAL_R_12  -1.0
    R_FO_12  PBAL_FO_12  1.0
    SELL_GAS_12  COST  -106.42171863077677
    SELL_GAS_12  PBAL_GAS_12  -1.0
    PINV_GAS_12  COST  0.15
    PINV_GAS_12  PBAL_GAS_12  -1.0
    PINV_GAS_12  PBAL_GAS_13  1.0
    SELL_DSL_12  COST  -99.67542781617504
    SELL_DSL_12  PBAL_DSL_12  -1.0
    PINV_DSL_12  COST  0.15
    PINV_DSL_12  PBAL_DSL_12  -1.0
    PINV_DSL_12  PBAL_DSL_13  1.0
    SELL_FO_12  COST  -63.75620591290361
    SELL_FO_12  PBAL_FO_12  -1.0
    PINV_FO_12  COST  0.15
    PINV_FO_12  PBAL_FO_12  -1.0
    PINV_FO_12  PBAL_FO_13  1.0
    BUY_SWEET_13  COST  74.8003687822799
    BUY_SWEET_13  CBAL_SWEET_13  1.0
    CINV_SWEET_13  COST  0.15
    CINV_SWEET_13  CBAL_SWEET_13  -1.0
    CINV_SWEET_13  CBAL_SWEET_14  1.0
    RUN_SWEET_13  CAP_13  1.0
    RUN_SWEET_13  CBAL_SWEET_13  -1.0
    RUN_SWEET_13  IBAL_D_13  0.42
    RUN_SWEET_13  IBAL_N_13  0.28
    RUN_SWEET_13  IBAL_R_13  0.28
    BUY_SOUR_13  COST  70.90996716342245
    BUY_SOUR_13  CBAL_SOUR_13  1.0
    CINV_SOUR_13  COST  0.15
    CINV_SOUR_13  CBAL_SOUR_13  -1.0
    CINV_SOUR_13  CBAL_SOUR_14  1.0
    RUN_SOUR_13  CAP_13  1.0
    RUN_SOUR_13  CBAL_SOUR_13  -1.0
    RUN_SOUR_13  IBAL_D_13  0.38
    RUN_SOUR_13  IBAL_N_13  0.2
    RUN_SOUR_13  IBAL_R_13  0.4
    IINV_N_13  COST  0.15
    IINV_N_13  IBAL_N_13  -1.0
    IINV_N_13  IBAL_N_14  1.0
    IINV_D_13  COST  0.15
    IINV_D_13  IBAL_D_13  -1.0
    IINV_D_13  IBAL_D_14  1.0
    IINV_R_13  COST  0.15
    IINV_R_13  IBAL_R_13  -1.0
    IINV_R_13  IBAL_R_14  1.0
    N_RF_13  COST  4.0
    N_RF_13  IBAL_N_13  -1.0
    N_RF_13  RFBAL_13  0.85
    N_G_13  IBAL_N_13  -1.0
    N_G_13  OCT_13  -15.0
    N_G_13  PBAL_GAS_13  1.0
    RF_G_13  OCT_13  13.0
    RF_G_13  PBAL_GAS_13  1.0
    RF_G_13  RFBAL_13  -1.0
    BU_G_13  COST  85.0
    BU_G_13  OCT_13  8.0
    BU_G_13  PBAL_GAS_13  1.0
    D_D_13  IBAL_D_13  -1.0
    D_D_13  PBAL_DSL_13  1.0
    D_D_13  SULF_13  0.2
    HD_D_13  COST  92.0
    HD_D_13  PBAL_DSL_13  1.0
    HD_D_13  SULF_13  -0.25
    R_FO_13  IBAL_R_13  -1.0
    R_FO_13  PBAL_FO_13  1.0
    SELL_GAS_13  COST  -106.8119946568719
    SELL_GAS_13  PBAL_GAS_13  -1.0
    PINV_GAS_13  COST  0.15
    PINV_GAS_13  PBAL_GAS_13  -1.0
    PINV_GAS_13  PBAL_GAS_14  1.0
    SELL_DSL_13  COST  -97.91235404919803
    SELL_DSL_13  PBAL_DSL_13  -1.0
    PINV_DSL_13  COST  0.15
    PINV_DSL_13  PBAL_DSL_13  -1.0
    PINV_DSL_13  PBAL_DSL_14  1.0
    SELL_FO_13  COST  -61.8336392247089
    SELL_FO_13  PBAL_FO_13  -1.0
    PINV_FO_13  COST  0.15
    PINV_FO_13  PBAL_FO_13  -1.0
    PINV_FO_13  PBAL_FO_14  1.0
    BUY_SWEET_14  COST  74.67426461991099
    BUY_SWEET_14  CBAL_SWEET_14  1.0
    CINV_SWEET_14  COST  0.15
    CINV_SWEET_14  CBAL_SWEET_14  -1.0
    CINV_SWEET_14  CBAL_SWEET_15  1.0
    RUN_SWEET_14  CAP_14  1.0
    RUN_SWEET_14  CBAL_SWEET_14  -1.0
    RUN_SWEET_14  IBAL_D_14  0.42
    RUN_SWEET_14  IBAL_N_14  0.28
    RUN_SWEET_14  IBAL_R_14  0.28
    BUY_SOUR_14  COST  68.9532009949136
    BUY_SOUR_14  CBAL_SOUR_14  1.0
    CINV_SOUR_14  COST  0.15
    CINV_SOUR_14  CBAL_SOUR_14  -1.0
    CINV_SOUR_14  CBAL_SOUR_15  1.0
    RUN_SOUR_14  CAP_14  1.0
    RUN_SOUR_14  CBAL_SOUR_14  -1.0
    RUN_SOUR_14  IBAL_D_14  0.38
    RUN_SOUR_14  IBAL_N_14  0.2
    RUN_SOUR_14  IBAL_R_14  0.4
    IINV_N_14  COST  0.15
    IINV_N_14  IBAL_N_14  -1.0
    IINV_N_14  IBAL_N_15  1.0
    IINV_D_14  COST  0.15
    IINV_D_14  IBAL_D_14  -1.0
    IINV_D_14  IBAL_D_15  1.0
    IINV_R_14  COST  0.15
    IINV_R_14  IBAL_R_14  -1.0
    IINV_R_14  IBAL_R_15  1.0
    N_RF_14  COST  4.0
    N_RF_14  IBAL_N_14  -1.0
    N_RF_14  RFBAL_14  0.85
    N_G_14  IBAL_N_14  -1.0
    N_G_14  OCT_14  -15.0
    N_G_14  PBAL_GAS_14  1.0
    RF_G_14  OCT_14  13.0
    RF_G_14  PBAL_GAS_14  1.0
    RF_G_14  RFBAL_14  -1.0
    BU_G_14  COST  85.0
    BU_G_14  OCT_14  8.0
    BU_G_14  PBAL_GAS_14  1.0
    D_D_14  IBAL_D_14  -1.0
    D_D_14  PBAL_DSL_14  1.0
    D_D_14  SULF_14  0.2
    HD_D_14  COST  92.0
    HD_D_14  PBAL_DSL_14  1.0
    HD_D_14  SULF_14  -0.25
    R_FO_14  IBAL_R_14  -1.0
    R_FO_14  PBAL_FO_14  1.0
    SELL_GAS_14  COST  -102.75299360006932
    SELL_GAS_14  PBAL_GAS_14  -1.0
    PINV_GAS_14  COST  0.15
    PINV_GAS_14  PBAL_GAS_14  -1.0
    PINV_GAS_14  PBAL_GAS_15  1.0
    SELL_DSL_14  COST  -97.4950662879313
    SELL_DSL_14  PBAL_DSL_14  -1.0
    PINV_DSL_14  COST  0.15
    PINV_DSL_14  PBAL_DSL_14  -1.0
    PINV_DSL_14  PBAL_DSL_15  1.0
    SELL_FO_14  COST  -60.32268519876009
    SELL_FO_14  PBAL_FO_14  -1.0
    PINV_FO_14  COST  0.15
    PINV_FO_14  PBAL_FO_14  -1.0
    PINV_FO_14  PBAL_FO_15  1.0
    BUY_SWEET_15  COST  79.17875760944447
    BUY_SWEET_15  CBAL_SWEET_15  1.0
    CINV_SWEET_15  COST  0.15
    CINV_SWEET_15  CBAL_SWEET_15  -1.0
    CINV_SWEET_15  CBAL_SWEET_16  1.0
    RUN_SWEET_15  CAP_15  1.0
    RUN_SWEET_15  CBAL_SWEET_15  -1.0
    RUN_SWEET_15  IBAL_D_15  0.42
    RUN_SWEET_15  IBAL_N_15  0.28
    RUN_SWEET_15  IBAL_R_15  0.28
    BUY_SOUR_15  COST  66.46850743737035
    BUY_SOUR_15  CBAL_SOUR_15  1.0
    CINV_SOUR_15  COST  0.15
    CINV_SOUR_15  CBAL_SOUR_15  -1.0
    CINV_SOUR_15  CBAL_SOUR_16  1.0
    RUN_SOUR_15  CAP_15  1.0
    RUN_SOUR_15  CBAL_SOUR_15  -1.0
    RUN_SOUR_15  IBAL_D_15  0.38
    RUN_SOUR_15  IBAL_N_15  0.2
    RUN_SOUR_15  IBAL_R_15  0.4
    IINV_N_15  COST  0.15
    IINV_N_15  IBAL_N_15  -1.0
    IINV_N_15  IBAL_N_16  1.0
    IINV_D_15  COST  0.15
    IINV_D_15  IBAL_D_15  -1.0
    IINV_D_15  IBAL_D_16  1.0
    IINV_R_15  COST  0.15
    IINV_R_15  IBAL_R_15  -1.0
    IINV_R_15  IBAL_R_16  1.0
    N_RF_15  COST  4.0
    N_RF_15  IBAL_N_15  -1.0
    N_RF_15  RFBAL_15  0.85
    N_G_15  IBAL_N_15  -1.0
    N_G_15  OCT_15  -15.0
    N_G_15  PBAL_GAS_15  1.0
    RF_G_15  OCT_15  13.0
    RF_G_15  PBAL_GAS_15  1.0
    RF_G_15  RFBAL_15  -1.0
    BU_G_15  COST  85.0
    BU_G_15  OCT_15  8.0
    BU_G_15  PBAL_GAS_15  1.0
    D_D_15  IBAL_D_15  -1.0
    D_D_15  PBAL_DSL_15  1.0
    D_D_15  SULF_15  0.2
    HD_D_15  COST  92.0
    HD_D_15  PBAL_DSL_15  1.0
    HD_D_15  SULF_15  -0.25
    R_FO_15  IBAL_R_15  -1.0
    R_FO_15  PBAL_FO_15  1.0
    SELL_GAS_15  COST  -105.95900568791696
    SELL_GAS_15  PBAL_GAS_15  -1.0
    PINV_GAS_15  COST  0.15
    PINV_GAS_15  PBAL_GAS_15  -1.0
    PINV_GAS_15  PBAL_GAS_16  1.0
    SELL_DSL_15  COST  -100.6839231265462
    SELL_DSL_15  PBAL_DSL_15  -1.0
    PINV_DSL_15  COST  0.15
    PINV_DSL_15  PBAL_DSL_15  -1.0
    PINV_DSL_15  PBAL_DSL_16  1.0
    SELL_FO_15  COST  -61.760136468971716
    SELL_FO_15  PBAL_FO_15  -1.0
    PINV_FO_15  COST  0.15
    PINV_FO_15  PBAL_FO_15  -1.0
    PINV_FO_15  PBAL_FO_16  1.0
    BUY_SWEET_16  COST  74.74639394662094
    BUY_SWEET_16  CBAL_SWEET_16  1.0
    CINV_SWEET_16  COST  0.15
    CINV_SWEET_16  CBAL_SWEET_16  -1.0
    CINV_SWEET_16  CBAL_SWEET_17  1.0
    RUN_SWEET_16  CAP_16  1.0
    RUN_SWEET_16  CBAL_SWEET_16  -1.0
    RUN_SWEET_16  IBAL_D_16  0.42
    RUN_SWEET_16  IBAL_N_16  0.28
    RUN_SWEET_16  IBAL_R_16  0.28
    BUY_SOUR_16  COST  68.27717368606815
    BUY_SOUR_16  CBAL_SOUR_16  1.0
    CINV_SOUR_16  COST  0.15
    CINV_SOUR_16  CBAL_SOUR_16  -1.0
    CINV_SOUR_16  CBAL_SOUR_17  1.0
    RUN_SOUR_16  CAP_16  1.0
    RUN_SOUR_16  CBAL_SOUR_16  -1.0
    RUN_SOUR_16  IBAL_D_16  0.38
    RUN_SOUR_16  IBAL_N_16  0.2
    RUN_SOUR_16  IBAL_R_16  0.4
    IINV_N_16  COST  0.15
    IINV_N_16  IBAL_N_16  -1.0
    IINV_N_16  IBAL_N_17  1.0
    IINV_D_16  COST  0.15
    IINV_D_16  IBAL_D_16  -1.0
    IINV_D_16  IBAL_D_17  1.0
    IINV_R_16  COST  0.15
    IINV_R_16  IBAL_R_16  -1.0
    IINV_R_16  IBAL_R_17  1.0
    N_RF_16  COST  4.0
    N_RF_16  IBAL_N_16  -1.0
    N_RF_16  RFBAL_16  0.85
    N_G_16  IBAL_N_16  -1.0
    N_G_16  OCT_16  -15.0
    N_G_16  PBAL_GAS_16  1.0
    RF_G_16  OCT_16  13.0
    RF_G_16  PBAL_GAS_16  1.0
    RF_G_16  RFBAL_16  -1.0
    BU_G_16  COST  85.0
    BU_G_16  OCT_16  8.0
    BU_G_16  PBAL_GAS_16  1.0
    D_D_16  IBAL_D_16  -1.0
    D_D_16  PBAL_DSL_16  1.0
    D_D_16  SULF_16  0.2
    HD_D_16  COST  92.0
    HD_D_16  PBAL_DSL_16  1.0
    HD_D_16  SULF_16  -0.25
    R_FO_16  IBAL_R_16  -1.0
    R_FO_16  PBAL_FO_16  1.0
    SELL_GAS_16  COST  -107.12601332581924
    SELL_GAS_16  PBAL_GAS_16  -1.0
    PINV_GAS_16  COST  0.15
    PINV_GAS_16  PBAL_GAS_16  -1.0
    PINV_GAS_16  PBAL_GAS_17  1.0
    SELL_DSL_16  COST  -96.05979724011435
    SELL_DSL_16  PBAL_DSL_16  -1.0
    PINV_DSL_16  COST  0.15
    PINV_DSL_16  PBAL_DSL_16  -1.0
    PINV_DSL_16  PBAL_DSL_17  1.0
    SELL_FO_16  COST  -61.10848367055156
    SELL_FO_16  PBAL_FO_16  -1.0
    PINV_FO_16  COST  0.15
    PINV_FO_16  PBAL_FO_16  -1.0
    PINV_FO_16  PBAL_FO_17  1.0
    BUY_SWEET_17  COST  76.75737017878924
    BUY_SWEET_17  CBAL_SWEET_17  1.0
    CINV_SWEET_17  COST  0.15
    CINV_SWEET_17  CBAL_SWEET_17  -1.0
    CINV_SWEET_17  CBAL_SWEET_18  1.0
    RUN_SWEET_17  CAP_17  1.0
    RUN_SWEET_17  CBAL_SWEET_17  -1.0
    RUN_SWEET_17  IBAL_D_17  0.42
    RUN_SWEET_17  IBAL_N_17  0.28
    RUN_SWEET_17  IBAL_R_17  0.28
    BUY_SOUR_17  COST  70.47601375199237
    BUY_SOUR_17  CBAL_SOUR_17  1.0
    CINV_SOUR_17  COST  0.15
    CINV_SOUR_17  CBAL_SOUR_17  -1.0
    CINV_SOUR_17  CBAL_SOUR_18  1.0
    RUN_SOUR_17  CAP_17  1.0
    RUN_SOUR_17  CBAL_SOUR_17  -1.0
    RUN_SOUR_17  IBAL_D_17  0.38
    RUN_SOUR_17  IBAL_N_17  0.2
    RUN_SOUR_17  IBAL_R_17  0.4
    IINV_N_17  COST  0.15
    IINV_N_17  IBAL_N_17  -1.0
    IINV_N_17  IBAL_N_18  1.0
    IINV_D_17  COST  0.15
    IINV_D_17  IBAL_D_17  -1.0
    IINV_D_17  IBAL_D_18  1.0
    IINV_R_17  COST  0.15
    IINV_R_17  IBAL_R_17  -1.0
    IINV_R_17  IBAL_R_18  1.0
    N_RF_17  COST  4.0
    N_RF_17  IBAL_N_17  -1.0
    N_RF_17  RFBAL_17  0.85
    N_G_17  IBAL_N_17  -1.0
    N_G_17  OCT_17  -15.0
    N_G_17  PBAL_GAS_17  1.0
    RF_G_17  OCT_17  13.0
    RF_G_17  PBAL_GAS_17  1.0
    RF_G_17  RFBAL_17  -1.0
    BU_G_17  COST  85.0
    BU_G_17  OCT_17  8.0
    BU_G_17  PBAL_GAS_17  1.0
    D_D_17  IBAL_D_17  -1.0
    D_D_17  PBAL_DSL_17  1.0
    D_D_17  SULF_17  0.2
    HD_D_17  COST  92.0
    HD_D_17  PBAL_DSL_17  1.0
    HD_D_17  SULF_17  -0.25
    R_FO_17  IBAL_R_17  -1.0
    R_FO_17  PBAL_FO_17  1.0
    SELL_GAS_17  COST  -103.6824964087257
    SELL_GAS_17  PBAL_GAS_17  -1.0
    PINV_GAS_17  COST  0.15
    PINV_GAS_17  PBAL_GAS_17  -1.0
    PINV_GAS_17  PBAL_GAS_18  1.0
    SELL_DSL_17  COST  -99.41756454962942
    SELL_DSL_17  PBAL_DSL_17  -1.0
    PINV_DSL_17  COST  0.15
    PINV_DSL_17  PBAL_DSL_17  -1.0
    PINV_DSL_17  PBAL_DSL_18  1.0
    SELL_FO_17  COST  -60.72788519548956
    SELL_FO_17  PBAL_FO_17  -1.0
    PINV_FO_17  COST  0.15
    PINV_FO_17  PBAL_FO_17  -1.0
    PINV_FO_17  PBAL_FO_18  1.0
    BUY_SWEET_18  COST  79.77178621422432
    BUY_SWEET_18  CBAL_SWEET_18  1.0
    CINV_SWEET_18  COST  0.15
    CINV_SWEET_18  CBAL_SWEET_18  -1.0
    CINV_SWEET_18  CBAL_SWEET_19  1.0
    RUN_SWEET_18  CAP_18  1.0
    RUN_SWEET_18  CBAL_SWEET_18  -1.0
    RUN_SWEET_18  IBAL_D_18  0.42
    RUN_SWEET_18  IBAL_N_18  0.28
    RUN_SWEET_18  IBAL_R_18  0.28
    BUY_SOUR_18  COST  69.54149031013334
    BUY_SOUR_18  CBAL_SOUR_18  1.0
    CINV_SOUR_18  COST  0.15
    CINV_SOUR_18  CBAL_SOUR_18  -1.0
    CINV_SOUR_18  CBAL_SOUR_19  1.0
    RUN_SOUR_18  CAP_18  1.0
    RUN_SOUR_18  CBAL_SOUR_18  -1.0
    RUN_SOUR_18  IBAL_D_18  0.38
    RUN_SOUR_18  IBAL_N_18  0.2
    RUN_SOUR_18  IBAL_R_18  0.4
    IINV_N_18  COST  0.15
    IINV_N_18  IBAL_N_18  -1.0
    IINV_N_18  IBAL_N_19  1.0
    IINV_D_18  COST  0.15
    IINV_D_18  IBAL_D_18  -1.0
    IINV_D_18  IBAL_D_19  1.0
    IINV_R_18  COST  0.15
    IINV_R_18  IBAL_R_18  -1.0
    IINV_R_18  IBAL_R_19  1.0
    N_RF_18  COST  4.0
    N_RF_18  IBAL_N_18  -1.0
    N_RF_18  RFBAL_18  0.85
    N_G_18  IBAL_N_18  -1.0
    N_G_18  OCT_18  -15.0
    N_G_18  PBAL_GAS_18  1.0
    RF_G_18  OCT_18  13.0
    RF_G_18  PBAL_GAS_18  1.0
    RF_G_18  RFBAL_18  -1.0
    BU_G_18  COST  85.0
    BU_G_18  OCT_18  8.0
    BU_G_18  PBAL_GAS_18  1.0
    D_D_18  IBAL_D_18  -1.0
    D_D_18  PBAL_DSL_18  1.0
    D_D_18  SULF_18  0.2
    HD_D_18  COST  92.0
    HD_D_18  PBAL_DSL_18  1.0
    HD_D_18  SULF_18  -0.25
    R_FO_18  IBAL_R_18  -1.0
    R_FO_18  PBAL_FO_18  1.0
    SELL_GAS_18  COST  -102.7286428823495
    SELL_GAS_18  PBAL_GAS_18  -1.0
    PINV_GAS_18  COST  0.15
    PINV_GAS_18  PBAL_GAS_18  -1.0
    PINV_GAS_18  PBAL_GAS_19  1.0
    SELL_DSL_18  COST  -96.90525639757134
    SELL_DSL_18  PBAL_DSL_18  -1.0
    PINV_DSL_18  COST  0.15
    PINV_DSL_18  PBAL_DSL_18  -1.0
    PINV_DSL_18  PBAL_DSL_19  1.0
    SELL_FO_18  COST  -61.70084785486055
    SELL_FO_18  PBAL_FO_18  -1.0
    PINV_FO_18  COST  0.15
    PINV_FO_18  PBAL_FO_18  -1.0
    PINV_FO_18  PBAL_FO_19  1.0
    BUY_SWEET_19  COST  80.96497336394465
    BUY_SWEET_19  CBAL_SWEET_19  1.0
    CINV_SWEET_19  COST  0.15
    CINV_SWEET_19  CBAL_SWEET_19  -1.0
    CINV_SWEET_19  CBAL_SWEET_20  1.0
    RUN_SWEET_19  CAP_19  1.0
    RUN_SWEET_19  CBAL_SWEET_19  -1.0
    RUN_SWEET_19  IBAL_D_19  0.42
    RUN_SWEET_19  IBAL_N_19  0.28
    RUN_SWEET_19  IBAL_R_19  0.28
    BUY_SOUR_19  COST  71.20704522013025
    BUY_SOUR_19  CBAL_SOUR_19  1.0
    CINV_SOUR_19  COST  0.15
    CINV_SOUR_19  CBAL_SOUR_19  -1.0
    CINV_SOUR_19  CBAL_SOUR_20  1.0
    RUN_SOUR_19  CAP_19  1.0
    RUN_SOUR_19  CBAL_SOUR_19  -1.0
    RUN_SOUR_19  IBAL_D_19  0.38
    RUN_SOUR_19  IBAL_N_19  0.2
    RUN_SOUR_19  IBAL_R_19  0.4
    IINV_N_19  COST  0.15
    IINV_N_19  IBAL_N_19  -1.0
    IINV_N_19  IBAL_N_20  1.0
    IINV_D_19  COST  0.15
    IINV_D_19  IBAL_D_19  -1.0
    IINV_D_19  IBAL_D_20  1.0
    IINV_R_19  COST  0.15
    IINV_R_19  IBAL_R_19  -1.0
    IINV_R_19  IBAL_R_20  1.0
    N_RF_19  COST  4.0
    N_RF_19  IBAL_N_19  -1.0
    N_RF_19  RFBAL_19  0.85
    N_G_19  IBAL_N_19  -1.0
    N_G_19  OCT_19  -15.0
    N_G_19  PBAL_GAS_19  1.0
    RF_G_19  OCT_19  13.0
    RF_G_19  PBAL_GAS_19  1.0
    RF_G_19  RFBAL_19  -1.0
    BU_G_19  COST  85.0
    BU_G_19  OCT_19  8.0
    BU_G_19  PBAL_GAS_19  1.0
    D_D_19  IBAL_D_19  -1.0
    D_D_19  PBAL_DSL_19  1.0
    D_D_19  SULF_19  0.2
    HD_D_19  COST  92.0
    HD_D_19  PBAL_DSL_19  1.0
    HD_D_19  SULF_19  -0.25
    R_FO_19  IBAL_R_19  -1.0
    R_FO_19  PBAL_FO_19  1.0
    SELL_GAS_19  COST  -104.1665287948118
    SELL_GAS_19  PBAL_GAS_19  -1.0
    PINV_GAS_19  COST  0.15
    PINV_GAS_19  PBAL_GAS_19  -1.0
    PINV_GAS_19  PBAL_GAS_20  1.0
    SELL_DSL_19  COST  -96.26504584117774
    SELL_DSL_19  PBAL_DSL_19  -1.0
    PINV_DSL_19  COST  0.15
    PINV_DSL_19  PBAL_DSL_19  -1.0
    PINV_DSL_19  PBAL_DSL_20  1.0
    SELL_FO_19  COST  -61.034921591644704
    SELL_FO_19  PBAL_FO_19  -1.0
    PINV_FO_19  COST  0.15
    PINV_FO_19  PBAL_FO_19  -1.0
    PINV_FO_19  PBAL_FO_20  1.0
    BUY_SWEET_20  COST  79.55071798736729
    BUY_SWEET_20  CBAL_SWEET_20  1.0
    CINV_SWEET_20  COST  0.15
    CINV_SWEET_20  CBAL_SWEET_20  -1.0
    CINV_SWEET_20  CBAL_SWEET_21  1.0
    RUN_SWEET_20  CAP_20  1.0
    RUN_SWEET_20  CBAL_SWEET_20  -1.0
    RUN_SWEET_20  IBAL_D_20  0.42
    RUN_SWEET_20  IBAL_N_20  0.28
    RUN_SWEET_20  IBAL_R_20  0.28
    BUY_SOUR_20  COST  66.5519383998317
    BUY_SOUR_20  CBAL_SOUR_20  1.0
    CINV_SOUR_20  COST  0.15
    CINV_SOUR_20  CBAL_SOUR_20  -1.0
    CINV_SOUR_20  CBAL_SOUR_21  1.0
    RUN_SOUR_20  CAP_20  1.0
    RUN_SOUR_20  CBAL_SOUR_20  -1.0
    RUN_SOUR_20  IBAL_D_20  0.38
    RUN_SOUR_20  IBAL_N_20  0.2
    RUN_SOUR_20  IBAL_R_20  0.4
    IINV_N_20  COST  0.15
    IINV_N_20  IBAL_N_20  -1.0
    IINV_N_20  IBAL_N_21  1.0
    IINV_D_20  COST  0.15
    IINV_D_20  IBAL_D_20  -1.0
    IINV_D_20  IBAL_D_21  1.0
    IINV_R_20  COST  0.15
    IINV_R_20  IBAL_R_20  -1.0
    IINV_R_20  IBAL_R_21  1.0
    N_RF_20  COST  4.0
    N_RF_20  IBAL_N_20  -1.0
    N_RF_20  RFBAL_20  0.85
    N_G_20  IBAL_N_20  -1.0
    N_G_20  OCT_20  -15.0
    N_G_20  PBAL_GAS_20  1.0
    RF_G_20  OCT_20  13.0
    RF_G_20  PBAL_GAS_20  1.0
    RF_G_20  RFBAL_20  -1.0
    BU_G_20  COST  85.0
    BU_G_20  OCT_20  8.0
    BU_G_20  PBAL_GAS_20  1.0
    D_D_20  IBAL_D_20  -1.0
    D_D_20  PBAL_DSL_20  1.0
    D_D_20  SULF_20  0.2
    HD_D_20  COST  92.0
    HD_D_20  PBAL_DSL_20  1.0
    HD_D_20  SULF_20  -0.25
    R_FO_20  IBAL_R_20  -1.0
    R_FO_20  PBAL_FO_20  1.0
    SELL_GAS_20  COST  -107.1022336713619
    SELL_GAS_20  PBAL_GAS_20  -1.0
    PINV_GAS_20  COST  0.15
    PINV_GAS_20  PBAL_GAS_20  -1.0
    PINV_GAS_20  PBAL_GAS_21  1.0
    SELL_DSL_20  COST  -100.18841550938862
    SELL_DSL_20  PBAL_DSL_20  -1.0
    PINV_DSL_20  COST  0.15
    PINV_DSL_20  PBAL_DSL_20  -1.0
    PINV_DSL_20  PBAL_DSL_21  1.0
    SELL_FO_20  COST  -60.48272952149819
    SELL_FO_20  PBAL_FO_20  -1.0
    PINV_FO_20  COST  0.15
    PINV_FO_20  PBAL_FO_20  -1.0
    PINV_FO_20  PBAL_FO_21  1.0
    BUY_SWEET_21  COST  80.71677039722007
    BUY_SWEET_21  CBAL_SWEET_21  1.0
    CINV_SWEET_21  COST  0.15
    CINV_SWEET_21  CBAL_SWEET_21  -1.0
    CINV_SWEET_21  CBAL_SWEET_22  1.0
    RUN_SWEET_21  CAP_21  1.0
    RUN_SWEET_21  CBAL_SWEET_21  -1.0
    RUN_SWEET_21  IBAL_D_21  0.42
    RUN_SWEET_21  IBAL_N_21  0.28
    RUN_SWEET_21  IBAL_R_21  0.28
    BUY_SOUR_21  COST  66.49920325855862
    BUY_SOUR_21  CBAL_SOUR_21  1.0
    CINV_SOUR_21  COST  0.15
    CINV_SOUR_21  CBAL_SOUR_21  -1.0
    CINV_SOUR_21  CBAL_SOUR_22  1.0
    RUN_SOUR_21  CAP_21  1.0
    RUN_SOUR_21  CBAL_SOUR_21  -1.0
    RUN_SOUR_21  IBAL_D_21  0.38
    RUN_SOUR_21  IBAL_N_21  0.2
    RUN_SOUR_21  IBAL_R_21  0.4
    IINV_N_21  COST  0.15
    IINV_N_21  IBAL_N_21  -1.0
    IINV_N_21  IBAL_N_22  1.0
    IINV_D_21  COST  0.15
    IINV_D_21  IBAL_D_21  -1.0
    IINV_D_21  IBAL_D_22  1.0
    IINV_R_21  COST  0.15
    IINV_R_21  IBAL_R_21  -1.0
    IINV_R_21  IBAL_R_22  1.0
    N_RF_21  COST  4.0
    N_RF_21  IBAL_N_21  -1.0
    N_RF_21  RFBAL_21  0.85
    N_G_21  IBAL_N_21  -1.0
    N_G_21  OCT_21  -15.0
    N_G_21  PBAL_GAS_21  1.0
    RF_G_21  OCT_21  13.0
    RF_G_21  PBAL_GAS_21  1.0
    RF_G_21  RFBAL_21  -1.0
    BU_G_21  COST  85.0
    BU_G_21  OCT_21  8.0
    BU_G_21  PBAL_GAS_21  1.0
    D_D_21  IBAL_D_21  -1.0
    D_D_21  PBAL_DSL_21  1.0
    D_D_21  SULF_21  0.2
    HD_D_21  COST  92.0
    HD_D_21  PBAL_DSL_21  1.0
    HD_D_21  SULF_21  -0.25
    R_FO_21  IBAL_R_21  -1.0
    R_FO_21  PBAL_FO_21  1.0
    SELL_GAS_21  COST  -104.5641346387163
    SELL_GAS_21  PBAL_GAS_21  -1.0
    PINV_GAS_21  COST  0.15
    PINV_GAS_21  PBAL_GAS_21  -1.0
    PINV_GAS_21  PBAL_GAS_22  1.0
    SELL_DSL_21  COST  -98.23194542155623
    SELL_DSL_21  PBAL_DSL_21  -1.0
    PINV_DSL_21  COST  0.15
    PINV_DSL_21  PBAL_DSL_21  -1.0
    PINV_DSL_21  PBAL_DSL_22  1.0
    SELL_FO_21  COST  -60.4955085518246
    SELL_FO_21  PBAL_FO_21  -1.0
    PINV_FO_21  COST  0.15
    PINV_FO_21  PBAL_FO_21  -1.0
    PINV_FO_21  PBAL_FO_22  1.0
    BUY_SWEET_22  COST  80.1447489573192
    BUY_SWEET_22  CBAL_SWEET_22  1.0
    CINV_SWEET_22  COST  0.15
    CINV_SWEET_22  CBAL_SWEET_22  -1.0
    CINV_SWEET_22  CBAL_SWEET_23  1.0
    RUN_SWEET_22  CAP_22  1.0
    RUN_SWEET_22  CBAL_SWEET_22  -1.0
    RUN_SWEET_22  IBAL_D_22  0.42
    RUN_SWEET_22  IBAL_N_22  0.28
    RUN_SWEET_22  IBAL_R_22  0.28
    BUY_SOUR_22  COST  71.1639947875233
    BUY_SOUR_22  CBAL_SOUR_22  1.0
    CINV_SOUR_22  COST  0.15
    CINV_SOUR_22  CBAL_SOUR_22  -1.0
    CINV_SOUR_22  CBAL_SOUR_23  1.0
    RUN_SOUR_22  CAP_22  1.0
    RUN_SOUR_22  CBAL_SOUR_22  -1.0
    RUN_SOUR_22  IBAL_D_22  0.38
    RUN_SOUR_22  IBAL_N_22  0.2
    RUN_SOUR_22  IBAL_R_22  0.4
    IINV_N_22  COST  0.15
    IINV_N_22  IBAL_N_22  -1.0
    IINV_N_22  IBAL_N_23  1.0
    IINV_D_22  COST  0.15
    IINV_D_22  IBAL_D_22  -1.0
    IINV_D_22  IBAL_D_23  1.0
    IINV_R_22  COST  0.15
    IINV_R_22  IBAL_R_22  -1.0
    IINV_R_22  IBAL_R_23  1.0
    N_RF_22  COST  4.0
    N_RF_22  IBAL_N_22  -1.0
    N_RF_22  RFBAL_22  0.85
    N_G_22  IBAL_N_22  -1.0
    N_G_22  OCT_22  -15.0
    N_G_22  PBAL_GAS_22  1.0
    RF_G_22  OCT_22  13.0
    RF_G_22  PBAL_GAS_22  1.0
    RF_G_22  RFBAL_22  -1.0
    BU_G_22  COST  85.0
    BU_G_22  OCT_22  8.0
    BU_G_22  PBAL_GAS_22  1.0
    D_D_22  IBAL_D_22  -1.0
    D_D_22  PBAL_DSL_22  1.0
    D_D_22  SULF_22  0.2
    HD_D_22  COST  92.0
    HD_D_22  PBAL_DSL_22  1.0
    HD_D_22  SULF_22  -0.25
    R_FO_22  IBAL_R_22  -1.0
    R_FO_22  PBAL_FO_22  1.0
    SELL_GAS_22  COST  -106.58147203610578
    SELL_GAS_22  PBAL_GAS_22  -1.0
    PINV_GAS_22  COST  0.15
    PINV_GAS_22  PBAL_GAS_22  -1.0
    PINV_GAS_22  PBAL_GAS_23  1.0
    SELL_DSL_22  COST  -97.07739192262473
    SELL_DSL_22  PBAL_DSL_22  -1.0
    PINV_DSL_22  COST  0.15
    PINV_DSL_22  PBAL_DSL_22  -1.0
    PINV_DSL_22  PBAL_DSL_23  1.0
    SELL_FO_22  COST  -63.66852284669103
    SELL_FO_22  PBAL_FO_22  -1.0
    PINV_FO_22  COST  0.15
    PINV_FO_22  PBAL_FO_22  -1.0
    PINV_FO_22  PBAL_FO_23  1.0
    BUY_SWEET_23  COST  74.45487898567578
    BUY_SWEET_23  CBAL_SWEET_23  1.0
    CINV_SWEET_23  COST  0.15
    CINV_SWEET_23  CBAL_SWEET_23  -1.0
    RUN_SWEET_23  CAP_23  1.0
    RUN_SWEET_23  CBAL_SWEET_23  -1.0
    RUN_SWEET_23  IBAL_D_23  0.42
    RUN_SWEET_23  IBAL_N_23  0.28
    RUN_SWEET_23  IBAL_R_23  0.28
    BUY_SOUR_23  COST  69.65061346013748
    BUY_SOUR_23  CBAL_SOUR_23  1.0
    CINV_SOUR_23  COST  0.15
    CINV_SOUR_23  CBAL_SOUR_23  -1.0
    RUN_SOUR_23  CAP_23  1.0
    RUN_SOUR_23  CBAL_SOUR_23  -1.0
    RUN_SOUR_23  IBAL_D_23  0.38
    RUN_SOUR_23  IBAL_N_23  0.2
    RUN_SOUR_23  IBAL_R_23  0.4
    IINV_N_23  COST  0.15
    IINV_N_23  IBAL_N_23  -1.0
    IINV_D_23  COST  0.15
    IINV_D_23  IBAL_D_23  -1.0
    IINV_R_23  COST  0.15
    IINV_R_23  IBAL_R_23  -1.0
    N_RF_23  COST  4.0
    N_RF_23  IBAL_N_23  -1.0
    N_RF_23  RFBAL_23  0.85
    N_G_23  IBAL_N_23  -1.0
    N_G_23  OCT_23  -15.0
    N_G_23  PBAL_GAS_23  1.0
    RF_G_23  OCT_23  13.0
    RF_G_23  PBAL_GAS_23  1.0
    RF_G_23  RFBAL_23  -1.0
    BU_G_23  COST  85.0
    BU_G_23  OCT_23  8.0
    BU_G_23  PBAL_GAS_23  1.0
    D_D_23  IBAL_D_23  -1.0
    D_D_23  PBAL_DSL_23  1.0
    D_D_23  SULF_23  0.2
    HD_D_23  COST  92.0
    HD_D_23  PBAL_DSL_23  1.0
    HD_D_23  SULF_23  -0.25
    R_FO_23  IBAL_R_23  -1.0
    R_FO_23  PBAL_FO_23  1.0
    SELL_GAS_23  COST  -103.76952452757487
    SELL_GAS_23  PBAL_GAS_23  -1.0
    PINV_GAS_23  COST  0.15
    PINV_GAS_23  PBAL_GAS_23  -1.0
    SELL_DSL_23  COST  -98.09869207115827
    SELL_DSL_23  PBAL_DSL_23  -1.0
    PINV_DSL_23  COST  0.15
    PINV_DSL_23  PBAL_DSL_23  -1.0
    SELL_FO_23  COST  -60.721296216057134
    SELL_FO_23  PBAL_FO_23  -1.0
    PINV_FO_23  COST  0.15
    PINV_FO_23  PBAL_FO_23  -1.0
RHS
    RHS  CBAL_SWEET_0  -2000.0
    RHS  CBAL_SOUR_0  -2000.0
    RHS  CAP_0  30000.0
    RHS  CAP_1  30000.0
    RHS  CAP_2  30000.0
    RHS  CAP_3  30000.0
    RHS  CAP_4  30000.0
    RHS  CAP_5  30000.0
    RHS  CAP_6  30000.0
    RHS  CAP_7  30000.0
    RHS  CAP_8  30000.0
    RHS  CAP_9  30000.0
    RHS  CAP_10  30000.0
    RHS  CAP_11  30000.0
    RHS  CAP_12  30000.0
    RHS  CAP_13  30000.0
    RHS  CAP_14  30000.0
    RHS  CAP_15  30000.0
    RHS  CAP_16  30000.0
    RHS  CAP_17  30000.0
    RHS  CAP_18  30000.0
    RHS  CAP_19  30000.0
    RHS  CAP_20  30000.0
    RHS  CAP_21  30000.0
    RHS  CAP_22  30000.0
    RHS  CAP_23  30000.0
BOUNDS
 UP BND  BUY_SWEET_0  14874.22085499604
 UP BND  CINV_SWEET_0  40000.0
 UP BND  BUY_SOUR_0  20064.96563118598
 UP BND  CINV_SOUR_0  40000.0
 UP BND  IINV_N_0  15000.0
 UP BND  IINV_D_0  15000.0
 UP BND  IINV_R_0  15000.0
 UP BND  N_RF_0  5000.0
 UP BND  BU_G_0  3000.0
 UP BND  HD_D_0  4000.0
 UP BND  SELL_GAS_0  9736.20846776285
 UP BND  PINV_GAS_0  12000.0
 UP BND  SELL_DSL_0  11899.810349487927
 UP BND  PINV_DSL_0  12000.0
 UP BND  SELL_FO_0  5949.9051747439635
 UP BND  PINV_FO_0  12000.0
 UP BND  BUY_SWEET_1  13751.401343332673
 UP BND  CINV_SWEET_1  40000.0
 UP BND  BUY_SOUR_1  19740.999346368266
 UP BND  CINV_SOUR_1  40000.0
 UP BND  IINV_N_1  15000.0
 UP BND  IINV_D_1  15000.0
 UP BND  IINV_R_1  15000.0
 UP BND  N_RF_1  5000.0
 UP BND  BU_G_1  3000.0
 UP BND  HD_D_1  4000.0
 UP BND  SELL_GAS_1  10203.799059043093
 UP BND  PINV_GAS_1  12000.0
 UP BND  SELL_DSL_1  12471.309961052668
 UP BND  PINV_DSL_1  12000.0
 UP BND  SELL_FO_1  6235.654980526334
 UP BND  PINV_FO_1  12000.0
 UP BND  BUY_SWEET_2  14247.187169561705
 UP BND  CINV_SWEET_2  40000.0
 UP BND  BUY_SOUR_2  19490.60718206042
 UP BND  CINV_SOUR_2  40000.0
 UP BND  IINV_N_2  15000.0
 UP BND  IINV_D_2  15000.0
 UP BND  IINV_R_2  15000.0
 UP BND  N_RF_2  5000.0
 UP BND  BU_G_2  3000.0
 UP BND  HD_D_2  4000.0
 UP BND  SELL_GAS_2  10151.815615313722
 UP BND  PINV_GAS_2  12000.0
 UP BND  SELL_DSL_2  12407.774640938993
 UP BND  PINV_DSL_2  12000.0
 UP BND  SELL_FO_2  6203.887320469496
 UP BND  PINV_FO_2  12000.0
 UP BND  BUY_SWEET_3  15177.32201094774
 UP BND  CINV_SWEET_3  40000.0
 UP BND  BUY_SOUR_3  18331.74730359309
 UP BND  CINV_SOUR_3  40000.0
 UP BND  IINV_N_3  15000.0
 UP BND  IINV_D_3  15000.0
 UP BND  IINV_R_3  15000.0
 UP BND  N_RF_3  5000.0
 UP BND  BU_G_3  3000.0
 UP BND  HD_D_3  4000.0
 UP BND  SELL_GAS_3  8271.093165058763
 UP BND  PINV_GAS_3  12000.0
 UP BND  SELL_DSL_3  10109.113868405153
 UP BND  PINV_DSL_3  12000.0
 UP BND  SELL_FO_3  5054.5569342025765
 UP BND  PINV_FO_3  12000.0
 UP BND  BUY_SWEET_4  15452.153659431353
 UP BND  CINV_SWEET_4  40000.0
 UP BND  BUY_SOUR_4  17553.302053230345
 UP BND  CINV_SOUR_4  40000.0
 UP BND  IINV_N_4  15000.0
 UP BND  IINV_D_4  15000.0
 UP BND  IINV_R_4  15000.0
 UP BND  N_RF_4  5000.0
 UP BND  BU_G_4  3000.0
 UP BND  HD_D_4  4000.0
 UP BND  SELL_GAS_4  7768.348703174949
 UP BND  PINV_GAS_4  12000.0
 UP BND  SELL_DSL_4  9494.648414991605
 UP BND  PINV_DSL_4  12000.0
 UP BND  SELL_FO_4  4747.3242074958025
 UP BND  PINV_FO_4  12000.0
 UP BND  BUY_SWEET_5  13869.549044536509
 UP BND  CINV_SWEET_5  40000.0
 UP BND  BUY_SOUR_5  18750.756645352594
 UP BND  CINV_SOUR_5  40000.0
 UP BND  IINV_N_5  15000.0
 UP BND  IINV_D_5  15000.0
 UP BND  IINV_R_5  15000.0
 UP BND  N_RF_5  5000.0
 UP BND  BU_G_5  3000.0
 UP BND  HD_D_5  4000.0
 UP BND  SELL_GAS_5  8213.965310972091
 UP BND  PINV_GAS_5  12000.0
 UP BND  SELL_DSL_5  10039.290935632554
 UP BND  PINV_DSL_5  12000.0
 UP BND  SELL_FO_5  5019.645467816277
 UP BND  PINV_FO_5  12000.0
 UP BND  BUY_SWEET_6  13809.412717192177
 UP BND  CINV_SWEET_6  40000.0
 UP BND  BUY_SOUR_6  18208.27226625844
 UP BND  CINV_SOUR_6  40000.0
 UP BND  IINV_N_6  15000.0
 UP BND  IINV_D_6  15000.0
 UP BND  IINV_R_6  15000.0
 UP BND  N_RF_6  5000.0
 UP BND  BU_G_6  3000.0
 UP BND  HD_D_6  4000.0
 UP BND  SELL_GAS_6  9387.454853611289
 UP BND  PINV_GAS_6  12000.0
 UP BND  SELL_DSL_6  11473.555932191575
 UP BND  PINV_DSL_6  12000.0
 UP BND  SELL_FO_6  5736.777966095788
 UP BND  PINV_FO_6  12000.0
 UP BND  BUY_SWEET_7  15036.334137028418
 UP BND  CINV_SWEET_7  40000.0
 UP BND  BUY_SOUR_7  21135.082482529484
 UP BND  CINV_SOUR_7  40000.0
 UP BND  IINV_N_7  15000.0
 UP BND  IINV_D_7  15000.0
 UP BND  IINV_R_7  15000.0
 UP BND  N_RF_7  5000.0
 UP BND  BU_G_7  3000.0
 UP BND  HD_D_7  4000.0
 UP BND  SELL_GAS_7  10318.19719091672
 UP BND  PINV_GAS_7  12000.0
 UP BND  SELL_DSL_7  12611.129900009326
 UP BND  PINV_DSL_7  12000.0
 UP BND  SELL_FO_7  6305.564950004663
 UP BND  PINV_FO_7  12000.0
 UP BND  BUY_SWEET_8  13769.609206906835
 UP BND  CINV_SWEET_8  40000.0
 UP BND  BUY_SOUR_8  18456.052533106027
 UP BND  CINV_SOUR_8  40000.0
 UP BND  IINV_N_8  15000.0
 UP BND  IINV_D_8  15000.0
 UP BND  IINV_R_8  15000.0
 UP BND  N_RF_8  5000.0
 UP BND  BU_G_8  3000.0
 UP BND  HD_D_8  4000.0
 UP BND  SELL_GAS_8  9875.8868583524
 UP BND  PINV_GAS_8  12000.0
 UP BND  SELL_DSL_8  12070.528382430712
 UP BND  PINV_DSL_8  12000.0
 UP BND  SELL_FO_8  6035.264191215356
 UP BND  PINV_FO_8  12000.0
 UP BND  BUY_SWEET_9  13895.372164664612
 UP BND  CINV_SWEET_9  40000.0
 UP BND  BUY_SOUR_9  17401.816543596957
 UP BND  CINV_SOUR_9  40000.0
 UP BND  IINV_N_9  15000.0
 UP BND  IINV_D_9  15000.0
 UP BND  IINV_R_9  15000.0
 UP BND  N_RF_9  5000.0
 UP BND  BU_G_9  3000.0
 UP BND  HD_D_9  4000.0
 UP BND  SELL_GAS_9  8071.809780805645
 UP BND  PINV_GAS_9  12000.0
 UP BND  SELL_DSL_9  9865.545287651343
 UP BND  PINV_DSL_9  12000.0
 UP BND  SELL_FO_9  4932.772643825671
 UP BND  PINV_FO_9  12000.0
 UP BND  BUY_SWEET_10  14223.766473592144
 UP BND  CINV_SWEET_10  40000.0
 UP BND  BUY_SOUR_10  22712.60745818725
 UP BND  CINV_SOUR_10  40000.0
 UP BND  IINV_N_10  15000.0
 UP BND  IINV_D_10  15000.0
 UP BND  IINV_R_10  15000.0
 UP BND  N_RF_10  5000.0
 UP BND  BU_G_10  3000.0
 UP BND  HD_D_10  4000.0
 UP BND  SELL_GAS_10  7750.452241364489
 UP BND  PINV_GAS_10  12000.0
 UP BND  SELL_DSL_10  9472.77496166771
 UP BND  PINV_DSL_10  12000.0
 UP BND  SELL_FO_10  4736.387480833855
 UP BND  PINV_FO_10  12000.0
 UP BND  BUY_SWEET_11  15424.610842759876
 UP BND  CINV_SWEET_11  40000.0
 UP BND  BUY_SOUR_11  19881.439736512457
 UP BND  CINV_SOUR_11  40000.0
 UP BND  IINV_N_11  15000.0
 UP BND  IINV_D_11  15000.0
 UP BND  IINV_R_11  15000.0
 UP BND  N_RF_11  5000.0
 UP BND  BU_G_11  3000.0
 UP BND  HD_D_11  4000.0
 UP BND  SELL_GAS_11  8896.512500473511
 UP BND  PINV_GAS_11  12000.0
 UP BND  SELL_DSL_11  10873.515278356514
 UP BND  PINV_DSL_11  12000.0
 UP BND  SELL_FO_11  5436.757639178257
 UP BND  PINV_FO_11  12000.0
 UP BND  BUY_SWEET_12  13436.950456380959
 UP BND  CINV_SWEET_12  40000.0
 UP BND  BUY_SOUR_12  18178.283460200822
 UP BND  CINV_SOUR_12  40000.0
 UP BND  IINV_N_12  15000.0
 UP BND  IINV_D_12  15000.0
 UP BND  IINV_R_12  15000.0
 UP BND  N_RF_12  5000.0
 UP BND  BU_G_12  3000.0
 UP BND  HD_D_12  4000.0
 UP BND  SELL_GAS_12  9831.513054066007
 UP BND  PINV_GAS_12  12000.0
 UP BND  SELL_DSL_12  12016.293732747341
 UP BND  PINV_DSL_12  12000.0
 UP BND  SELL_FO_12  6008.1468663736705
 UP BND  PINV_FO_12  12000.0
 UP BND  BUY_SWEET_13  14183.096171702455
 UP BND  CINV_SWEET_13  40000.0
 UP BND  BUY_SOUR_13  19933.239467696676
 UP BND  CINV_SOUR_13  40000.0
 UP BND  IINV_N_13  15000.0
 UP BND  IINV_D_13  15000.0
 UP BND  IINV_R_13  15000.0
 UP BND  N_RF_13  5000.0
 UP BND  BU_G_13  3000.0
 UP BND  HD_D_13  4000.0
 UP BND  SELL_GAS_13  10259.840773994049
 UP BND  PINV_GAS_13  12000.0
 UP BND  SELL_DSL_13  12539.805390437172
 UP BND  PINV_DSL_13  12000.0
 UP BND  SELL_FO_13  6269.902695218586
 UP BND  PINV_FO_13  12000.0
 UP BND  BUY_SWEET_14  12644.296199367658
 UP BND  CINV_SWEET_14  40000.0
 UP BND  BUY_SOUR_14  22354.359125522555
 UP BND  CINV_SOUR_14  40000.0
 UP BND  IINV_N_14  15000.0
 UP BND  IINV_D_14  15000.0
 UP BND  IINV_R_14  15000.0
 UP BND  N_RF_14  5000.0
 UP BND  BU_G_14  3000.0
 UP BND  HD_D_14  4000.0
 UP BND  SELL_GAS_14  9986.054740403764
 UP BND  PINV_GAS_14  12000.0
 UP BND  SELL_DSL_14  12205.178016049045
 UP BND  PINV_DSL_14  12000.0
 UP BND  SELL_FO_14  6102.589008024523
 UP BND  PINV_FO_14  12000.0
 UP BND  BUY_SWEET_15  14968.974121341962
 UP BND  CINV_SWEET_15  40000.0
 UP BND  BUY_SOUR_15  19873.869784261868
 UP BND  CINV_SOUR_15  40000.0
 UP BND  IINV_N_15  15000.0
 UP BND  IINV_D_15  15000.0
 UP BND  IINV_R_15  15000.0
 UP BND  N_RF_15  5000.0
 UP BND  BU_G_15  3000.0
 UP BND  HD_D_15  4000.0
 UP BND  SELL_GAS_15  8706.371258212688
 UP BND  PINV_GAS_15  12000.0
 UP BND  SELL_DSL_15  10641.120426704396
 UP BND  PINV_DSL_15  12000.0
 UP BND  SELL_FO_15  5320.560213352198
 UP BND  PINV_FO_15  12000.0
 UP BND  BUY_SWEET_16  12142.472248856464
 UP BND  CINV_SWEET_16  40000.0
 UP BND  BUY_SOUR_16  22758.24312351933
 UP BND  CINV_SOUR_16  40000.0
 UP BND  IINV_N_16  15000.0
 UP BND  IINV_D_16  15000.0
 UP BND  IINV_R_16  15000.0
 UP BND  N_RF_16  5000.0
 UP BND  BU_G_16  3000.0
 UP BND  HD_D_16  4000.0
 UP BND  SELL_GAS_16  7784.488140792971
 UP BND  PINV_GAS_16  12000.0
 UP BND  SELL_DSL_16  9514.374394302518
 UP BND  PINV_DSL_16  12000.0
 UP BND  SELL_FO_16  4757.187197151259
 UP BND  PINV_FO_16  12000.0
 UP BND  BUY_SWEET_17  15661.395378196328
 UP BND  CINV_SWEET_17  40000.0
 UP BND  BUY_SOUR_17  17388.0391879417
 UP BND  CINV_SOUR_17  40000.0
 UP BND  IINV_N_17  15000.0
 UP BND  IINV_D_17  15000.0
 UP BND  IINV_R_17  15000.0
 UP BND  N_RF_17  5000.0
 UP BND  BU_G_17  3000.0
 UP BND  HD_D_17  4000.0
 UP BND  SELL_GAS_17  8572.055474580144
 UP BND  PINV_GAS_17  12000.0
 UP BND  SELL_DSL_17  10476.95669115351
 UP BND  PINV_DSL_17  12000.0
 UP BND  SELL_FO_17  5238.478345576755
 UP BND  PINV_FO_17  12000.0
 UP BND  BUY_SWEET_18  15433.96239993082
 UP BND  CINV_SWEET_18  40000.0
 UP BND  BUY_SOUR_18  19154.64514918095
 UP BND  CINV_SOUR_18  40000.0
 UP BND  IINV_N_18  15000.0
 UP BND  IINV_D_18  15000.0
 UP BND  IINV_R_18  15000.0
 UP BND  N_RF_18  5000.0
 UP BND  BU_G_18  3000.0
 UP BND  HD_D_18  4000.0
 UP BND  SELL_GAS_18  9898.022382641484
 UP BND  PINV_GAS_18  12000.0
 UP BND  SELL_DSL_18  12097.58291211737
 UP BND  PINV_DSL_18  12000.0
 UP BND  SELL_FO_18  6048.791456058685
 UP BND  PINV_FO_18  12000.0
 UP BND  BUY_SWEET_19  12545.7088759988
 UP BND  CINV_SWEET_19  40000.0
 UP BND  BUY_SOUR_19  21793.785915324825
 UP BND  CINV_SOUR_19  40000.0
 UP BND  IINV_N_19  15000.0
 UP BND  IINV_D_19  15000.0
 UP BND  IINV_R_19  15000.0
 UP BND  N_RF_19  5000.0
 UP BND  BU_G_19  3000.0
 UP BND  HD_D_19  4000.0
 UP BND  SELL_GAS_19  10246.037297439196
 UP BND  PINV_GAS_19  12000.0
 UP BND  SELL_DSL_19  12522.934474647907
 UP BND  PINV_DSL_19  12000.0
 UP BND  SELL_FO_19  6261.467237323954
 UP BND  PINV_FO_19  12000.0
 UP BND  BUY_SWEET_20  15953.958224094446
 UP BND  CINV_SWEET_20  40000.0
 UP BND  BUY_SOUR_20  19894.982250642977
 UP BND  CINV_SOUR_20  40000.0
 UP BND  IINV_N_20  15000.0
 UP BND  IINV_D_20  15000.0
 UP BND  IINV_R_20  15000.0
 UP BND  N_RF_20  5000.0
 UP BND  BU_G_20  3000.0
 UP BND  HD_D_20  4000.0
 UP BND  SELL_GAS_20  9242.037440242839
 UP BND  PINV_GAS_20  12000.0
 UP BND  SELL_DSL_20  11295.823538074581
 UP BND  PINV_DSL_20  12000.0
 UP BND  SELL_FO_20  5647.9117690372905
 UP BND  PINV_FO_20  12000.0
 UP BND  BUY_SWEET_21  15393.39657992304
 UP BND  CINV_SWEET_21  40000.0
 UP BND  BUY_SOUR_21  18887.917992583985
 UP BND  CINV_SOUR_21  40000.0
 UP BND  IINV_N_21  15000.0
 UP BND  IINV_D_21  15000.0
 UP BND  IINV_R_21  15000.0
 UP BND  N_RF_21  5000.0
 UP BND  BU_G_21  3000.0
 UP BND  HD_D_21  4000.0
 UP BND  SELL_GAS_21  8697.304087166254
 UP BND  PINV_GAS_21  12000.0
 UP BND  SELL_DSL_21  10630.038328758754
 UP BND  PINV_DSL_21  12000.0
 UP BND  SELL_FO_21  5315.019164379377
 UP BND  PINV_FO_21  12000.0
 UP BND  BUY_SWEET_22  14145.886455475547
 UP BND  CINV_SWEET_22  40000.0
 UP BND  BUY_SOUR_22  18385.01759345796
 UP BND  CINV_SOUR_22  40000.0
 UP BND  IINV_N_22  15000.0
 UP BND  IINV_D_22  15000.0
 UP BND  IINV_R_22  15000.0
 UP BND  N_RF_22  5000.0
 UP BND  BU_G_22  3000.0
 UP BND  HD_D_22  4000.0
 UP BND  SELL_GAS_22  7733.154289252458
 UP BND  PINV_GAS_22  12000.0
 UP BND  SELL_DSL_22  9451.633020197447
 UP BND  PINV_DSL_22  12000.0
 UP BND  SELL_FO_22  4725.8165100987235
 UP BND  PINV_FO_22  12000.0
 UP BND  BUY_SWEET_23  15430.356559042193
 LO BND  CINV_SWEET_23  2000.0
 UP BND  CINV_SWEET_23  40000.0
 UP BND  BUY_SOUR_23  17333.84924631013
 LO BND  CINV_SOUR_23  2000.0
 UP BND  CINV_SOUR_23  40000.0
 UP BND  IINV_N_23  15000.0
 UP BND  IINV_D_23  15000.0
 UP BND  IINV_R_23  15000.0
 UP BND  N_RF_23  5000.0
 UP BND  BU_G_23  3000.0
 UP BND  HD_D_23  4000.0
 UP BND  SELL_GAS_23  8583.51521681761
 UP BND  PINV_GAS_23  12000.0
 UP BND  SELL_DSL_23  10490.963042777077
 UP BND  PINV_DSL_23  12000.0
 UP BND  SELL_FO_23  5245.481521388539
 UP BND  PINV_FO_23  12000.0
ENDATA
