NAME          campaign_supply_cut_milp
* SYNTHETIC refinery stress case; invented data, linear model only.
ROWS
 N  COST
 E  CBAL_SWEET_0
 E  CBAL_SOUR_0
 L  CAP_0
 E  IBAL_N_0
 E  IBAL_D_0
 E  IBAL_R_0
 E  RFBAL_0
 E  PBAL_GAS_0
 E  PBAL_DSL_0
 E  PBAL_FO_0
 G  OCT_0
 L  SULF_0
 L  MAXON_0
 G  MINON_0
 L  STARTUP_0
 L  RFMAX_0
 G  RFMIN_0
 E  CBAL_SWEET_1
 E  CBAL_SOUR_1
 L  CAP_1
 E  IBAL_N_1
 E  IBAL_D_1
 E  IBAL_R_1
 E  RFBAL_1
 E  PBAL_GAS_1
 E  PBAL_DSL_1
 E  PBAL_FO_1
 G  OCT_1
 L  SULF_1
 L  MAXON_1
 G  MINON_1
 L  STARTUP_1
 L  RFMAX_1
 G  RFMIN_1
 E  CBAL_SWEET_2
 E  CBAL_SOUR_2
 L  CAP_2
 E  IBAL_N_2
 E  IBAL_D_2
 E  IBAL_R_2
 E  RFBAL_2
 E  PBAL_GAS_2
 E  PBAL_DSL_2
 E  PBAL_FO_2
 G  OCT_2
 L  SULF_2
 L  MAXON_2
 G  MINON_2
 L  STARTUP_2
 L  RFMAX_2
 G  RFMIN_2
 E  CBAL_SWEET_3
 E  CBAL_SOUR_3
 L  CAP_3
 E  IBAL_N_3
 E  IBAL_D_3
 E  IBAL_R_3
 E  RFBAL_3
 E  PBAL_GAS_3
 E  PBAL_DSL_3
 E  PBAL_FO_3
 G  OCT_3
 L  SULF_3
 L  MAXON_3
 G  MINON_3
 L  STARTUP_3
 L  RFMAX_3
 G  RFMIN_3
 E  CBAL_SWEET_4
 E  CBAL_SOUR_4
 L  CAP_4
 E  IBAL_N_4
 E  IBAL_D_4
 E  IBAL_R_4
 E  RFBAL_4
 E  PBAL_GAS_4
 E  PBAL_DSL_4
 E  PBAL_FO_4
 G  OCT_4
 L  SULF_4
 L  MAXON_4
 G  MINON_4
 L  STARTUP_4
 L  RFMAX_4
 G  RFMIN_4
 E  CBAL_SWEET_5
 E  CBAL_SOUR_5
 L  CAP_5
 E  IBAL_N_5
 E  IBAL_D_5
 E  IBAL_R_5
 E  RFBAL_5
 E  PBAL_GAS_5
 E  PBAL_DSL_5
 E  PBAL_FO_5
 G  OCT_5
 L  SULF_5
 L  MAXON_5
 G  MINON_5
 L  STARTUP_5
 L  RFMAX_5
 G  RFMIN_5
 E  CBAL_SWEET_6
 E  CBAL_SOUR_6
 L  CAP_6
 E  IBAL_N_6
 E  IBAL_D_6
 E  IBAL_R_6
 E  RFBAL_6
 E  PBAL_GAS_6
 E  PBAL_DSL_6
 E  PBAL_FO_6
 G  OCT_6
 L  SULF_6
 L  MAXON_6
 G  MINON_6
 L  STARTUP_6
 L  RFMAX_6
 G  RFMIN_6
 E  CBAL_SWEET_7
 E  CBAL_SOUR_7
 L  CAP_7
 E  IBAL_N_7
 E  IBAL_D_7
 E  IBAL_R_7
 E  RFBAL_7
 E  PBAL_GAS_7
 E  PBAL_DSL_7
 E  PBAL_FO_7
 G  OCT_7
 L  SULF_7
 L  MAXON_7
 G  MINON_7
 L  STARTUP_7
 L  RFMAX_7
 G  RFMIN_7
COLUMNS
    BUY_SWEET_0  COST  81.68693800772608
    BUY_SWEET_0  CBAL_SWEET_0  1.0
    CINV_SWEET_0  COST  0.15
    CINV_SWEET_0  CBAL_SWEET_0  -1.0
    CINV_SWEET_0  CBAL_SWEET_1  1.0
    RUN_SWEET_0  CAP_0  1.0
    RUN_SWEET_0  CBAL_SWEET_0  -1.0
    RUN_SWEET_0  IBAL_D_0  0.42
    RUN_SWEET_0  IBAL_N_0  0.28
    RUN_SWEET_0  IBAL_R_0  0.28
    RUN_SWEET_0  MAXON_0  1.0
    RUN_SWEET_0  MINON_0  1.0
    BUY_SOUR_0  COST  69.34455600726143
    BUY_SOUR_0  CBAL_SOUR_0  1.0
    CINV_SOUR_0  COST  0.15
    CINV_SOUR_0  CBAL_SOUR_0  -1.0
    CINV_SOUR_0  CBAL_SOUR_1  1.0
    RUN_SOUR_0  CAP_0  1.0
    RUN_SOUR_0  CBAL_SOUR_0  -1.0
    RUN_SOUR_0  IBAL_D_0  0.38
    RUN_SOUR_0  IBAL_N_0  0.2
    RUN_SOUR_0  IBAL_R_0  0.4
    RUN_SOUR_0  MAXON_0  1.0
    RUN_SOUR_0  MINON_0  1.0
    IINV_N_0  COST  0.15
    IINV_N_0  IBAL_N_0  -1.0
    IINV_N_0  IBAL_N_1  1.0
    IINV_D_0  COST  0.15
    IINV_D_0  IBAL_D_0  -1.0
    IINV_D_0  IBAL_D_1  1.0
    IINV_R_0  COST  0.15
    IINV_R_0  IBAL_R_0  -1.0
    IINV_R_0  IBAL_R_1  1.0
    N_RF_0  COST  4.0
    N_RF_0  IBAL_N_0  -1.0
    N_RF_0  RFBAL_0  0.85
    N_RF_0  RFMAX_0  1.0
    N_RF_0  RFMIN_0  1.0
    N_G_0  IBAL_N_0  -1.0
    N_G_0  OCT_0  -15.0
    N_G_0  PBAL_GAS_0  1.0
    RF_G_0  OCT_0  13.0
    RF_G_0  PBAL_GAS_0  1.0
    RF_G_0  RFBAL_0  -1.0
    BU_G_0  COST  85.0
    BU_G_0  OCT_0  8.0
    BU_G_0  PBAL_GAS_0  1.0
    D_D_0  IBAL_D_0  -1.0
    D_D_0  PBAL_DSL_0  1.0
    D_D_0  SULF_0  0.2
    HD_D_0  COST  92.0
    HD_D_0  PBAL_DSL_0  1.0
    HD_D_0  SULF_0  -0.25
    R_FO_0  IBAL_R_0  -1.0
    R_FO_0  PBAL_FO_0  1.0
    SELL_GAS_0  COST  -103.21136382215636
    SELL_GAS_0  PBAL_GAS_0  -1.0
    PINV_GAS_0  COST  0.15
    PINV_GAS_0  PBAL_GAS_0  -1.0
    PINV_GAS_0  PBAL_GAS_1  1.0
    SELL_DSL_0  COST  -100.8004937940843
    SELL_DSL_0  PBAL_DSL_0  -1.0
    PINV_DSL_0  COST  0.15
    PINV_DSL_0  PBAL_DSL_0  -1.0
    PINV_DSL_0  PBAL_DSL_1  1.0
    SELL_FO_0  COST  -60.163176549361076
    SELL_FO_0  PBAL_FO_0  -1.0
    PINV_FO_0  COST  0.15
    PINV_FO_0  PBAL_FO_0  -1.0
    PINV_FO_0  PBAL_FO_1  1.0
    MARKER                 'MARKER'                 'INTORG'
    ON_0  COST  12000.0
    ON_0  MAXON_0  -30000.0
    ON_0  MINON_0  -8000.0
    ON_0  STARTUP_0  1.0
    ON_0  STARTUP_1  -1.0
    UP_0  COST  40000.0
    UP_0  STARTUP_0  -1.0
    RFON_0  COST  5000.0
    RFON_0  RFMAX_0  -5000.0
    RFON_0  RFMIN_0  -1500.0
    MARKER                 'MARKER'                 'INTEND'
    BUY_SWEET_1  COST  80.17918678999126
    BUY_SWEET_1  CBAL_SWEET_1  1.0
    CINV_SWEET_1  COST  0.15
    CINV_SWEET_1  CBAL_SWEET_1  -1.0
    CINV_SWEET_1  CBAL_SWEET_2  1.0
    RUN_SWEET_1  CAP_1  1.0
    RUN_SWEET_1  CBAL_SWEET_1  -1.0
    RUN_SWEET_1  IBAL_D_1  0.42
    RUN_SWEET_1  IBAL_N_1  0.28
    RUN_SWEET_1  IBAL_R_1  0.28
    RUN_SWEET_1  MAXON_1  1.0
    RUN_SWEET_1  MINON_1  1.0
    BUY_SOUR_1  COST  70.46835400207472
    BUY_SOUR_1  CBAL_SOUR_1  1.0
    CINV_SOUR_1  COST  0.15
    CINV_SOUR_1  CBAL_SOUR_1  -1.0
    CINV_SOUR_1  CBAL_SOUR_2  1.0
    RUN_SOUR_1  CAP_1  1.0
    RUN_SOUR_1  CBAL_SOUR_1  -1.0
    RUN_SOUR_1  IBAL_D_1  0.38
    RUN_SOUR_1  IBAL_N_1  0.2
    RUN_SOUR_1  IBAL_R_1  0.4
    RUN_SOUR_1  MAXON_1  1.0
    RUN_SOUR_1  MINON_1  1.0
    IINV_N_1  COST  0.15
    IINV_N_1  IBAL_N_1  -1.0
    IINV_N_1  IBAL_N_2  1.0
    IINV_D_1  COST  0.15
    IINV_D_1  IBAL_D_1  -1.0
    IINV_D_1  IBAL_D_2  1.0
    IINV_R_1  COST  0.15
    IINV_R_1  IBAL_R_1  -1.0
    IINV_R_1  IBAL_R_2  1.0
    N_RF_1  COST  4.0
    N_RF_1  IBAL_N_1  -1.0
    N_RF_1  RFBAL_1  0.85
    N_RF_1  RFMAX_1  1.0
    N_RF_1  RFMIN_1  1.0
    N_G_1  IBAL_N_1  -1.0
    N_G_1  OCT_1  -15.0
    N_G_1  PBAL_GAS_1  1.0
    RF_G_1  OCT_1  13.0
    RF_G_1  PBAL_GAS_1  1.0
    RF_G_1  RFBAL_1  -1.0
    BU_G_1  COST  85.0
    BU_G_1  OCT_1  8.0
    BU_G_1  PBAL_GAS_1  1.0
    D_D_1  IBAL_D_1  -1.0
    D_D_1  PBAL_DSL_1  1.0
    D_D_1  SULF_1  0.2
    HD_D_1  COST  92.0
    HD_D_1  PBAL_DSL_1  1.0
    HD_D_1  SULF_1  -0.25
    R_FO_1  IBAL_R_1  -1.0
    R_FO_1  PBAL_FO_1  1.0
    SELL_GAS_1  COST  -108.04542426620446
    SELL_GAS_1  PBAL_GAS_1  -1.0
    PINV_GAS_1  COST  0.15
    PINV_GAS_1  PBAL_GAS_1  -1.0
    PINV_GAS_1  PBAL_GAS_2  1.0
    SELL_DSL_1  COST  -96.02339237945962
    SELL_DSL_1  PBAL_DSL_1  -1.0
    PINV_DSL_1  COST  0.15
    PINV_DSL_1  PBAL_DSL_1  -1.0
    PINV_DSL_1  PBAL_DSL_2  1.0
    SELL_FO_1  COST  -62.36208227143023
    SELL_FO_1  PBAL_FO_1  -1.0
    PINV_FO_1  COST  0.15
    PINV_FO_1  PBAL_FO_1  -1.0
    PINV_FO_1  PBAL_FO_2  1.0
    MARKER                 'MARKER'                 'INTORG'
    ON_1  COST  12000.0
    ON_1  MAXON_1  -30000.0
    ON_1  MINON_1  -8000.0
    ON_1  STARTUP_1  1.0
    ON_1  STARTUP_2  -1.0
    UP_1  COST  40000.0
    UP_1  STARTUP_1  -1.0
    RFON_1  COST  5000.0
    RFON_1  RFMAX_1  -5000.0
    RFON_1  RFMIN_1  -1500.0
    MARKER                 'MARKER'                 'INTEND'
    BUY_SWEET_2  COST  74.4444484518657
    BUY_SWEET_2  CBAL_SWEET_2  1.0
    CINV_SWEET_2  COST  0.15
    CINV_SWEET_2  CBAL_SWEET_2  -1.0
    CINV_SWEET_2  CBAL_SWEET_3  1.0
    RUN_SWEET_2  CAP_2  1.0
    RUN_SWEET_2  CBAL_SWEET_2  -1.0
    RUN_SWEET_2  IBAL_D_2  0.42
    RUN_SWEET_2  IBAL_N_2  0.28
    RUN_SWEET_2  IBAL_R_2  0.28
    RUN_SWEET_2  MAXON_2  1.0
    RUN_SWEET_2  MINON_2  1.0
    BUY_SOUR_2  COST  67.56579719878262
    BUY_SOUR_2  CBAL_SOUR_2  1.0
    CINV_SOUR_2  COST  0.15
    CINV_SOUR_2  CBAL_SOUR_2  -1.0
    CINV_SOUR_2  CBAL_SOUR_3  1.0
    RUN_SOUR_2  CAP_2  1.0
    RUN_SOUR_2  CBAL_SOUR_2  -1.0
    RUN_SOUR_2  IBAL_D_2  0.38
    RUN_SOUR_2  IBAL_N_2  0.2
    RUN_SOUR_2  IBAL_R_2  0.4
    RUN_SOUR_2  MAXON_2  1.0
    RUN_SOUR_2  MINON_2  1.0
    IINV_N_2  COST  0.15
    IINV_N_2  IBAL_N_2  -1.0
    IINV_N_2  IBAL_N_3  1.0
    IINV_D_2  COST  0.15
    IINV_D_2  IBAL_D_2  -1.0
    IINV_D_2  IBAL_D_3  1.0
    IINV_R_2  COST  0.15
    IINV_R_2  IBAL_R_2  -1.0
    IINV_R_2  IBAL_R_3  1.0
    N_RF_2  COST  4.0
    N_RF_2  IBAL_N_2  -1.0
    N_RF_2  RFBAL_2  0.85
    N_RF_2  RFMAX_2  1.0
    N_RF_2  RFMIN_2  1.0
    N_G_2  IBAL_N_2  -1.0
    N_G_2  OCT_2  -15.0
    N_G_2  PBAL_GAS_2  1.0
    RF_G_2  OCT_2  13.0
    RF_G_2  PBAL_GAS_2  1.0
    RF_G_2  RFBAL_2  -1.0
    BU_G_2  COST  85.0
    BU_G_2  OCT_2  8.0
    BU_G_2  PBAL_GAS_2  1.0
    D_D_2  IBAL_D_2  -1.0
    D_D_2  PBAL_DSL_2  1.0
    D_D_2  SULF_2  0.2
    HD_D_2  COST  92.0
    HD_D_2  PBAL_DSL_2  1.0
    HD_D_2  SULF_2  -0.25
    R_FO_2  IBAL_R_2  -1.0
    R_FO_2  PBAL_FO_2  1.0
    SELL_GAS_2  COST  -107.82855703272384
    SELL_GAS_2  PBAL_GAS_2  -1.0
    PINV_GAS_2  COST  0.15
    PINV_GAS_2  PBAL_GAS_2  -1.0
    PINV_GAS_2  PBAL_GAS_3  1.0
    SELL_DSL_2  COST  -99.68347919729815
    SELL_DSL_2  PBAL_DSL_2  -1.0
    PINV_DSL_2  COST  0.15
    PINV_DSL_2  PBAL_DSL_2  -1.0
    PINV_DSL_2  PBAL_DSL_3  1.0
    SELL_FO_2  COST  -63.36259619072391
    SELL_FO_2  PBAL_FO_2  -1.0
    PINV_FO_2  COST  0.15
    PINV_FO_2  PBAL_FO_2  -1.0
    PINV_FO_2  PBAL_FO_3  1.0
    MARKER                 'MARKER'                 'INTORG'
    ON_2  COST  12000.0
    ON_2  MAXON_2  -30000.0
    ON_2  MINON_2  -8000.0
    ON_2  STARTUP_2  1.0
    ON_2  STARTUP_3  -1.0
    UP_2  COST  40000.0
    UP_2  STARTUP_2  -1.0
    RFON_2  COST  5000.0
    RFON_2  RFMAX_2  -5000.0
    RFON_2  RFMIN_2  -1500.0
    MARKER                 'MARKER'                 'INTEND'
    BUY_SWEET_3  COST  78.78579322674659
    BUY_SWEET_3  CBAL_SWEET_3  1.0
    CINV_SWEET_3  COST  0.15
    CINV_SWEET_3  CBAL_SWEET_3  -1.0
    CINV_SWEET_3  CBAL_SWEET_4  1.0
    RUN_SWEET_3  CAP_3  1.0
    RUN_SWEET_3  CBAL_SWEET_3  -1.0
    RUN_SWEET_3  IBAL_D_3  0.42
    RUN_SWEET_3  IBAL_N_3  0.28
    RUN_SWEET_3  IBAL_R_3  0.28
    RUN_SWEET_3  MAXON_3  1.0
    RUN_SWEET_3  MINON_3  1.0
    BUY_SOUR_3  COST  69.58698513907187
    BUY_SOUR_3  CBAL_SOUR_3  1.0
    CINV_SOUR_3  COST  0.15
    CINV_SOUR_3  CBAL_SOUR_3  -1.0
    CINV_SOUR_3  CBAL_SOUR_4  1.0
    RUN_SOUR_3  CAP_3  1.0
    RUN_SOUR_3  CBAL_SOUR_3  -1.0
    RUN_SOUR_3  IBAL_D_3  0.38
    RUN_SOUR_3  IBAL_N_3  0.2
    RUN_SOUR_3  IBAL_R_3  0.4
    RUN_SOUR_3  MAXON_3  1.0
    RUN_SOUR_3  MINON_3  1.0
    IINV_N_3  COST  0.15
    IINV_N_3  IBAL_N_3  -1.0
    IINV_N_3  IBAL_N_4  1.0
    IINV_D_3  COST  0.15
    IINV_D_3  IBAL_D_3  -1.0
    IINV_D_3  IBAL_D_4  1.0
    IINV_R_3  COST  0.15
    IINV_R_3  IBAL_R_3  -1.0
    IINV_R_3  IBAL_R_4  1.0
    N_RF_3  COST  4.0
    N_RF_3  IBAL_N_3  -1.0
    N_RF_3  RFBAL_3  0.85
    N_RF_3  RFMAX_3  1.0
    N_RF_3  RFMIN_3  1.0
    N_G_3  IBAL_N_3  -1.0
    N_G_3  OCT_3  -15.0
    N_G_3  PBAL_GAS_3  1.0
    RF_G_3  OCT_3  13.0
    RF_G_3  PBAL_GAS_3  1.0
    RF_G_3  RFBAL_3  -1.0
    BU_G_3  COST  85.0
    BU_G_3  OCT_3  8.0
    BU_G_3  PBAL_GAS_3  1.0
    D_D_3  IBAL_D_3  -1.0
    D_D_3  PBAL_DSL_3  1.0
    D_D_3  SULF_3  0.2
    HD_D_3  COST  92.0
    HD_D_3  PBAL_DSL_3  1.0
    HD_D_3  SULF_3  -0.25
    R_FO_3  IBAL_R_3  -1.0
    R_FO_3  PBAL_FO_3  1.0
    SELL_GAS_3  COST  -104.4231963189577
    SELL_GAS_3  PBAL_GAS_3  -1.0
    PINV_GAS_3  COST  0.15
    PINV_GAS_3  PBAL_GAS_3  -1.0
    PINV_GAS_3  PBAL_GAS_4  1.0
    SELL_DSL_3  COST  -98.16410388169737
    SELL_DSL_3  PBAL_DSL_3  -1.0
    PINV_DSL_3  COST  0.15
    PINV_DSL_3  PBAL_DSL_3  -1.0
    PINV_DSL_3  PBAL_DSL_4  1.0
    SELL_FO_3  COST  -63.62776629229751
    SELL_FO_3  PBAL_FO_3  -1.0
    PINV_FO_3  COST  0.15
    PINV_FO_3  PBAL_FO_3  -1.0
    PINV_FO_3  PBAL_FO_4  1.0
    MARKER                 'MARKER'                 'INTORG'
    ON_3  COST  12000.0
    ON_3  MAXON_3  -30000.0
    ON_3  MINON_3  -8000.0
    ON_3  STARTUP_3  1.0
    ON_3  STARTUP_4  -1.0
    UP_3  COST  40000.0
    UP_3  STARTUP_3  -1.0
    RFON_3  COST  5000.0
    RFON_3  RFMAX_3  -5000.0
    RFON_3  RFMIN_3  -1500.0
    MARKER                 'MARKER'                 'INTEND'
    BUY_SWEET_4  COST  75.33414257604143
    BUY_SWEET_4  CBAL_SWEET_4  1.0
    CINV_SWEET_4  COST  0.15
    CINV_SWEET_4  CBAL_SWEET_4  -1.0
    CINV_SWEET_4  CBAL_SWEET_5  1.0
    RUN_SWEET_4  CAP_4  1.0
    RUN_SWEET_4  CBAL_SWEET_4  -1.0
    RUN_SWEET_4  IBAL_D_4  0.42
    RUN_SWEET_4  IBAL_N_4  0.28
    RUN_SWEET_4  IBAL_R_4  0.28
    RUN_SWEET_4  MAXON_4  1.0
    RUN_SWEET_4  MINON_4  1.0
    BUY_SOUR_4  COST  68.16594774446561
    BUY_SOUR_4  CBAL_SOUR_4  1.0
    CINV_SOUR_4  COST  0.15
    CINV_SOUR_4  CBAL_SOUR_4  -1.0
    CINV_SOUR_4  CBAL_SOUR_5  1.0
    RUN_SOUR_4  CAP_4  1.0
    RUN_SOUR_4  CBAL_SOUR_4  -1.0
    RUN_SOUR_4  IBAL_D_4  0.38
    RUN_SOUR_4  IBAL_N_4  0.2
    RUN_SOUR_4  IBAL_R_4  0.4
    RUN_SOUR_4  MAXON_4  1.0
    RUN_SOUR_4  MINON_4  1.0
    IINV_N_4  COST  0.15
    IINV_N_4  IBAL_N_4  -1.0
    IINV_N_4  IBAL_N_5  1.0
    IINV_D_4  COST  0.15
    IINV_D_4  IBAL_D_4  -1.0
    IINV_D_4  IBAL_D_5  1.0
    IINV_R_4  COST  0.15
    IINV_R_4  IBAL_R_4  -1.0
    IINV_R_4  IBAL_R_5  1.0
    N_RF_4  COST  4.0
    N_RF_4  IBAL_N_4  -1.0
    N_RF_4  RFBAL_4  0.85
    N_RF_4  RFMAX_4  1.0
    N_RF_4  RFMIN_4  1.0
    N_G_4  IBAL_N_4  -1.0
    N_G_4  OCT_4  -15.0
    N_G_4  PBAL_GAS_4  1.0
    RF_G_4  OCT_4  13.0
    RF_G_4  PBAL_GAS_4  1.0
    RF_G_4  RFBAL_4  -1.0
    BU_G_4  COST  85.0
    BU_G_4  OCT_4  8.0
    BU_G_4  PBAL_GAS_4  1.0
    D_D_4  IBAL_D_4  -1.0
    D_D_4  PBAL_DSL_4  1.0
    D_D_4  SULF_4  0.2
    HD_D_4  COST  92.0
    HD_D_4  PBAL_DSL_4  1.0
    HD_D_4  SULF_4  -0.25
    R_FO_4  IBAL_R_4  -1.0
    R_FO_4  PBAL_FO_4  1.0
    SELL_GAS_4  COST  -105.86694453799376
    SELL_GAS_4  PBAL_GAS_4  -1.0
    PINV_GAS_4  COST  0.15
    PINV_GAS_4  PBAL_GAS_4  -1.0
    PINV_GAS_4  PBAL_GAS_5  1.0
    SELL_DSL_4  COST  -97.42079320831081
    SELL_DSL_4  PBAL_DSL_4  -1.0
    PINV_DSL_4  COST  0.15
    PINV_DSL_4  PBAL_DSL_4  -1.0
    PINV_DSL_4  PBAL_DSL_5  1.0
    SELL_FO_4  COST  -62.55727500555195
    SELL_FO_4  PBAL_FO_4  -1.0
    PINV_FO_4  COST  0.15
    PINV_FO_4  PBAL_FO_4  -1.0
    PINV_FO_4  PBAL_FO_5  1.0
    MARKER                 'MARKER'                 'INTORG'
    ON_4  COST  12000.0
    ON_4  MAXON_4  -30000.0
    ON_4  MINON_4  -8000.0
    ON_4  STARTUP_4  1.0
    ON_4  STARTUP_5  -1.0
    UP_4  COST  40000.0
    UP_4  STARTUP_4  -1.0
    RFON_4  COST  5000.0
    RFON_4  RFMAX_4  -5000.0
    RFON_4  RFMIN_4  -1500.0
    MARKER                 'MARKER'                 'INTEND'
    BUY_SWEET_5  COST  80.08575874330296
    BUY_SWEET_5  CBAL_SWEET_5  1.0
    CINV_SWEET_5  COST  0.15
    CINV_SWEET_5  CBAL_SWEET_5  -1.0
    CINV_SWEET_5  CBAL_SWEET_6  1.0
    RUN_SWEET_5  CAP_5  1.0
    RUN_SWEET_5  CBAL_SWEET_5  -1.0
    RUN_SWEET_5  IBAL_D_5  0.42
    RUN_SWEET_5  IBAL_N_5  0.28
    RUN_SWEET_5  IBAL_R_5  0.28
    RUN_SWEET_5  MAXON_5  1.0
    RUN_SWEET_5  MINON_5  1.0
    BUY_SOUR_5  COST  67.15391522639528
    BUY_SOUR_5  CBAL_SOUR_5  1.0
    CINV_SOUR_5  COST  0.15
    CINV_SOUR_5  CBAL_SOUR_5  -1.0
    CINV_SOUR_5  CBAL_SOUR_6  1.0
    RUN_SOUR_5  CAP_5  1.0
    RUN_SOUR_5  CBAL_SOUR_5  -1.0
    RUN_SOUR_5  IBAL_D_5  0.38
    RUN_SOUR_5  IBAL_N_5  0.2
    RUN_SOUR_5  IBAL_R_5  0.4
    RUN_SOUR_5  MAXON_5  1.0
    RUN_SOUR_5  MINON_5  1.0
    IINV_N_5  COST  0.15
    IINV_N_5  IBAL_N_5  -1.0
    IINV_N_5  IBAL_N_6  1.0
    IINV_D_5  COST  0.15
    IINV_D_5  IBAL_D_5  -1.0
    IINV_D_5  IBAL_D_6  1.0
    IINV_R_5  COST  0.15
    IINV_R_5  IBAL_R_5  -1.0
    IINV_R_5  IBAL_R_6  1.0
    N_RF_5  COST  4.0
    N_RF_5  IBAL_N_5  -1.0
    N_RF_5  RFBAL_5  0.85
    N_RF_5  RFMAX_5  1.0
    N_RF_5  RFMIN_5  1.0
    N_G_5  IBAL_N_5  -1.0
    N_G_5  OCT_5  -15.0
    N_G_5  PBAL_GAS_5  1.0
    RF_G_5  OCT_5  13.0
    RF_G_5  PBAL_GAS_5  1.0
    RF_G_5  RFBAL_5  -1.0
    BU_G_5  COST  85.0
    BU_G_5  OCT_5  8.0
    BU_G_5  PBAL_GAS_5  1.0
    D_D_5  IBAL_D_5  -1.0
    D_D_5  PBAL_DSL_5  1.0
    D_D_5  SULF_5  0.2
    HD_D_5  COST  92.0
    HD_D_5  PBAL_DSL_5  1.0
    HD_D_5  SULF_5  -0.25
    R_FO_5  IBAL_R_5  -1.0
    R_FO_5  PBAL_FO_5  1.0
    SELL_GAS_5  COST  -105.01595827375968
    SELL_GAS_5  PBAL_GAS_5  -1.0
    PINV_GAS_5  COST  0.15
    PINV_GAS_5  PBAL_GAS_5  -1.0
    PINV_GAS_5  PBAL_GAS_6  1.0
    SELL_DSL_5  COST  -99.0976024299081
    SELL_DSL_5  PBAL_DSL_5  -1.0
    PINV_DSL_5  COST  0.15
    PINV_DSL_5  PBAL_DSL_5  -1.0
    PINV_DSL_5  PBAL_DSL_6  1.0
    SELL_FO_5  COST  -61.083688293020344
    SELL_FO_5  PBAL_FO_5  -1.0
    PINV_FO_5  COST  0.15
    PINV_FO_5  PBAL_FO_5  -1.0
    PINV_FO_5  PBAL_FO_6  1.0
    MARKER                 'MARKER'                 'INTORG'
    ON_5  COST  12000.0
    ON_5  MAXON_5  -30000.0
    ON_5  MINON_5  -8000.0
    ON_5  STARTUP_5  1.0
    ON_5  STARTUP_6  -1.0
    UP_5  COST  40000.0
    UP_5  STARTUP_5  -1.0
    RFON_5  COST  5000.0
    RFON_5  RFMAX_5  -5000.0
    RFON_5  RFMIN_5  -1500.0
    MARKER                 'MARKER'                 'INTEND'
    BUY_SWEET_6  COST  81.08490909523793
    BUY_SWEET_6  CBAL_SWEET_6  1.0
    CINV_SWEET_6  COST  0.15
    CINV_SWEET_6  CBAL_SWEET_6  -1.0
    CINV_SWEET_6  CBAL_SWEET_7  1.0
    RUN_SWEET_6  CAP_6  1.0
    RUN_SWEET_6  CBAL_SWEET_6  -1.0
    RUN_SWEET_6  IBAL_D_6  0.42
    RUN_SWEET_6  IBAL_N_6  0.28
    RUN_SWEET_6  IBAL_R_6  0.28
    RUN_SWEET_6  MAXON_6  1.0
    RUN_SWEET_6  MINON_6  1.0
    BUY_SOUR_6  COST  68.93538809652742
    BUY_SOUR_6  CBAL_SOUR_6  1.0
    CINV_SOUR_6  COST  0.15
    CINV_SOUR_6  CBAL_SOUR_6  -1.0
    CINV_SOUR_6  CBAL_SOUR_7  1.0
    RUN_SOUR_6  CAP_6  1.0
    RUN_SOUR_6  CBAL_SOUR_6  -1.0
    RUN_SOUR_6  IBAL_D_6  0.38
    RUN_SOUR_6  IBAL_N_6  0.2
    RUN_SOUR_6  IBAL_R_6  0.4
    RUN_SOUR_6  MAXON_6  1.0
    RUN_SOUR_6  MINON_6  1.0
    IINV_N_6  COST  0.15
    IINV_N_6  IBAL_N_6  -1.0
    IINV_N_6  IBAL_N_7  1.0
    IINV_D_6  COST  0.15
    IINV_D_6  IBAL_D_6  -1.0
    IINV_D_6  IBAL_D_7  1.0
    IINV_R_6  COST  0.15
    IINV_R_6  IBAL_R_6  -1.0
    IINV_R_6  IBAL_R_7  1.0
    N_RF_6  COST  4.0
    N_RF_6  IBAL_N_6  -1.0
    N_RF_6  RFBAL_6  0.85
    N_RF_6  RFMAX_6  1.0
    N_RF_6  RFMIN_6  1.0
    N_G_6  IBAL_N_6  -1.0
    N_G_6  OCT_6  -15.0
    N_G_6  PBAL_GAS_6  1.0
    RF_G_6  OCT_6  13.0
    RF_G_6  PBAL_GAS_6  1.0
    RF_G_6  RFBAL_6  -1.0
    BU_G_6  COST  85.0
    BU_G_6  OCT_6  8.0
    BU_G_6  PBAL_GAS_6  1.0
    D_D_6  IBAL_D_6  -1.0
    D_D_6  PBAL_DSL_6  1.0
    D_D_6  SULF_6  0.2
    HD_D_6  COST  92.0
    HD_D_6  PBAL_DSL_6  1.0
    HD_D_6  SULF_6  -0.25
    R_FO_6  IBAL_R_6  -1.0
    R_FO_6  PBAL_FO_6  1.0
    SELL_GAS_6  COST  -103.05611233334946
    SELL_GAS_6  PBAL_GAS_6  -1.0
    PINV_GAS_6  COST  0.15
    PINV_GAS_6  PBAL_GAS_6  -1.0
    PINV_GAS_6  PBAL_GAS_7  1.0
    SELL_DSL_6  COST  -97.98702939394975
    SELL_DSL_6  PBAL_DSL_6  -1.0
    PINV_DSL_6  COST  0.15
    PINV_DSL_6  PBAL_DSL_6  -1.0
    PINV_DSL_6  PBAL_DSL_7  1.0
    SELL_FO_6  COST  -60.81869690500489
    SELL_FO_6  PBAL_FO_6  -1.0
    PINV_FO_6  COST  0.15
    PINV_FO_6  PBAL_FO_6  -1.0
    PINV_FO_6  PBAL_FO_7  1.0
    MARKER                 'MARKER'                 'INTORG'
    ON_6  COST  12000.0
    ON_6  MAXON_6  -30000.0
    ON_6  MINON_6  -8000.0
    ON_6  STARTUP_6  1.0
    ON_6  STARTUP_7  -1.0
    UP_6  COST  40000.0
    UP_6  STARTUP_6  -1.0
    RFON_6  COST  5000.0
    RFON_6  RFMAX_6  -5000.0
    RFON_6  RFMIN_6  -1500.0
    MARKER                 'MARKER'                 'INTEND'
    BUY_SWEET_7  COST  80.5754671963671
    BUY_SWEET_7  CBAL_SWEET_7  1.0
    CINV_SWEET_7  COST  0.15
    CINV_SWEET_7  CBAL_SWEET_7  -1.0
    RUN_SWEET_7  CAP_7  1.0
    RUN_SWEET_7  CBAL_SWEET_7  -1.0
    RUN_SWEET_7  IBAL_D_7  0.42
    RUN_SWEET_7  IBAL_N_7  0.28
    RUN_SWEET_7  IBAL_R_7  0.28
    RUN_SWEET_7  MAXON_7  1.0
    RUN_SWEET_7  MINON_7  1.0
    BUY_SOUR_7  COST  70.7517396034549
    BUY_SOUR_7  CBAL_SOUR_7  1.0
    CINV_SOUR_7  COST  0.15
    CINV_SOUR_7  CBAL_SOUR_7  -1.0
    RUN_SOUR_7  CAP_7  1.0
    RUN_SOUR_7  CBAL_SOUR_7  -1.0
    RUN_SOUR_7  IBAL_D_7  0.38
    RUN_SOUR_7  IBAL_N_7  0.2
    RUN_SOUR_7  IBAL_R_7  0.4
    RUN_SOUR_7  MAXON_7  1.0
    RUN_SOUR_7  MINON_7  1.0
    IINV_N_7  COST  0.15
    IINV_N_7  IBAL_N_7  -1.0
    IINV_D_7  COST  0.15
    IINV_D_7  IBAL_D_7  -1.0
    IINV_R_7  COST  0.15
    IINV_R_7  IBAL_R_7  -1.0
    N_RF_7  COST  4.0
    N_RF_7  IBAL_N_7  -1.0
    N_RF_7  RFBAL_7  0.85
    N_RF_7  RFMAX_7  1.0
    N_RF_7  RFMIN_7  1.0
    N_G_7  IBAL_N_7  -1.0
    N_G_7  OCT_7  -15.0
    N_G_7  PBAL_GAS_7  1.0
    RF_G_7  OCT_7  13.0
    RF_G_7  PBAL_GAS_7  1.0
    RF_G_7  RFBAL_7  -1.0
    BU_G_7  COST  85.0
    BU_G_7  OCT_7  8.0
    BU_G_7  PBAL_GAS_7  1.0
    D_D_7  IBAL_D_7  -1.0
    D_D_7  PBAL_DSL_7  1.0
    D_D_7  SULF_7  0.2
    HD_D_7  COST  92.0
    HD_D_7  PBAL_DSL_7  1.0
    HD_D_7  SULF_7  -0.25
    R_FO_7  IBAL_R_7  -1.0
    R_FO_7  PBAL_FO_7  1.0
    SELL_GAS_7  COST  -104.4003988690587
    SELL_GAS_7  PBAL_GAS_7  -1.0
    PINV_GAS_7  COST  0.15
    PINV_GAS_7  PBAL_GAS_7  -1.0
    SELL_DSL_7  COST  -97.0073060781758
    SELL_DSL_7  PBAL_DSL_7  -1.0
    PINV_DSL_7  COST  0.15
    PINV_DSL_7  PBAL_DSL_7  -1.0
    SELL_FO_7  COST  -62.26835622541463
    SELL_FO_7  PBAL_FO_7  -1.0
    PINV_FO_7  COST  0.15
    PINV_FO_7  PBAL_FO_7  -1.0
    MARKER                 'MARKER'                 'INTORG'
    ON_7  COST  12000.0
    ON_7  MAXON_7  -30000.0
    ON_7  MINON_7  -8000.0
    ON_7  STARTUP_7  1.0
    UP_7  COST  40000.0
    UP_7  STARTUP_7  -1.0
    RFON_7  COST  5000.0
    RFON_7  RFMAX_7  -5000.0
    RFON_7  RFMIN_7  -1500.0
    MARKER                 'MARKER'                 'INTEND'
RHS
    RHS  CBAL_SWEET_0  -2000.0
    RHS  CBAL_SOUR_0  -2000.0
    RHS  CAP_0  30000.0
    RHS  CAP_1  30000.0
    RHS  CAP_2  30000.0
    RHS  CAP_3  30000.0
    RHS  CAP_4  30000.0
    RHS  CAP_5  30000.0
    RHS  CAP_6  30000.0
    RHS  CAP_7  30000.0
BOUNDS
 UP BND  BUY_SWEET_0  14198.375446538033
 UP BND  CINV_SWEET_0  40000.0
 UP BND  BUY_SOUR_0  6386.668788613856
 UP BND  CINV_SOUR_0  40000.0
 UP BND  IINV_N_0  15000.0
 UP BND  IINV_D_0  15000.0
 UP BND  IINV_R_0  15000.0
 UP BND  N_RF_0  5000.0
 UP BND  BU_G_0  3000.0
 UP BND  HD_D_0  4000.0
 UP BND  SELL_GAS_0  10145.136919646673
 UP BND  PINV_GAS_0  12000.0
 UP BND  SELL_DSL_0  12399.611790679268
 UP BND  PINV_DSL_0  12000.0
 UP BND  SELL_FO_0  6199.805895339634
 UP BND  PINV_FO_0  12000.0
 UP BND  ON_0  1.0
 UP BND  UP_0  1.0
 UP BND  RFON_0  1.0
 UP BND  BUY_SWEET_1  13726.124436098671
 UP BND  CINV_SWEET_1  40000.0
 UP BND  BUY_SOUR_1  5455.833134280455
 UP BND  CINV_SOUR_1  40000.0
 UP BND  IINV_N_1  15000.0
 UP BND  IINV_D_1  15000.0
 UP BND  IINV_R_1  15000.0
 UP BND  N_RF_1  5000.0
 UP BND  BU_G_1  3000.0
 UP BND  HD_D_1  4000.0
 UP BND  SELL_GAS_1  10305.084741049675
 UP BND  PINV_GAS_1  12000.0
 UP BND  SELL_DSL_1  12595.103572394048
 UP BND  PINV_DSL_1  12000.0
 UP BND  SELL_FO_1  6297.551786197024
 UP BND  PINV_FO_1  12000.0
 UP BND  ON_1  1.0
 UP BND  UP_1  1.0
 UP BND  RFON_1  1.0
 UP BND  BUY_SWEET_2  13523.599387103242
 UP BND  CINV_SWEET_2  40000.0
 UP BND  BUY_SOUR_2  6821.975341885624
 UP BND  CINV_SOUR_2  40000.0
 UP BND  IINV_N_2  15000.0
 UP BND  IINV_D_2  15000.0
 UP BND  IINV_R_2  15000.0
 UP BND  N_RF_2  5000.0
 UP BND  BU_G_2  3000.0
 UP BND  HD_D_2  4000.0
 UP BND  SELL_GAS_2  10162.730726367767
 UP BND  PINV_GAS_2  12000.0
 UP BND  SELL_DSL_2  12421.115332227271
 UP BND  PINV_DSL_2  12000.0
 UP BND  SELL_FO_2  6210.557666113636
 UP BND  PINV_FO_2  12000.0
 UP BND  ON_2  1.0
 UP BND  UP_2  1.0
 UP BND  RFON_2  1.0
 UP BND  BUY_SWEET_3  12214.78406545505
 UP BND  CINV_SWEET_3  40000.0
 UP BND  BUY_SOUR_3  5402.349930693126
 UP BND  CINV_SOUR_3  40000.0
 UP BND  IINV_N_3  15000.0
 UP BND  IINV_D_3  15000.0
 UP BND  IINV_R_3  15000.0
 UP BND  N_RF_3  5000.0
 UP BND  BU_G_3  3000.0
 UP BND  HD_D_3  4000.0
 UP BND  SELL_GAS_3  8756.532637645196
 UP BND  PINV_GAS_3  12000.0
 UP BND  SELL_DSL_3  10702.428779344129
 UP BND  PINV_DSL_3  12000.0
 UP BND  SELL_FO_3  5351.2143896720645
 UP BND  PINV_FO_3  12000.0
 UP BND  ON_3  1.0
 UP BND  UP_3  1.0
 UP BND  RFON_3  1.0
 UP BND  BUY_SWEET_4  12354.412208126369
 UP BND  CINV_SWEET_4  40000.0
 UP BND  BUY_SOUR_4  6081.364773065783
 UP BND  CINV_SOUR_4  40000.0
 UP BND  IINV_N_4  15000.0
 UP BND  IINV_D_4  15000.0
 UP BND  IINV_R_4  15000.0
 UP BND  N_RF_4  5000.0
 UP BND  BU_G_4  3000.0
 UP BND  HD_D_4  4000.0
 UP BND  SELL_GAS_4  7650.34842280523
 UP BND  PINV_GAS_4  12000.0
 UP BND  SELL_DSL_4  9350.425850095282
 UP BND  PINV_DSL_4  12000.0
 UP BND  SELL_FO_4  4675.212925047641
 UP BND  PINV_FO_4  12000.0
 UP BND  ON_4  1.0
 UP BND  UP_4  1.0
 UP BND  RFON_4  1.0
 UP BND  BUY_SWEET_5  14520.447676902537
 UP BND  CINV_SWEET_5  40000.0
 UP BND  BUY_SOUR_5  5422.153038074036
 UP BND  CINV_SOUR_5  40000.0
 UP BND  IINV_N_5  15000.0
 UP BND  IINV_D_5  15000.0
 UP BND  IINV_R_5  15000.0
 UP BND  N_RF_5  5000.0
 UP BND  BU_G_5  3000.0
 UP BND  HD_D_5  4000.0
 UP BND  SELL_GAS_5  8202.948565585088
 UP BND  PINV_GAS_5  12000.0
 UP BND  SELL_DSL_5  10025.826024603995
 UP BND  PINV_DSL_5  12000.0
 UP BND  SELL_FO_5  5012.913012301998
 UP BND  PINV_FO_5  12000.0
 UP BND  ON_5  1.0
 UP BND  UP_5  1.0
 UP BND  RFON_5  1.0
 UP BND  BUY_SWEET_6  14524.709545069212
 UP BND  CINV_SWEET_6  40000.0
 UP BND  BUY_SOUR_6  5753.136459179627
 UP BND  CINV_SOUR_6  40000.0
 UP BND  IINV_N_6  15000.0
 UP BND  IINV_D_6  15000.0
 UP BND  IINV_R_6  15000.0
 UP BND  N_RF_6  5000.0
 UP BND  BU_G_6  3000.0
 UP BND  HD_D_6  4000.0
 UP BND  SELL_GAS_6  9740.874582006105
 UP BND  PINV_GAS_6  12000.0
 UP BND  SELL_DSL_6  11905.513378007461
 UP BND  PINV_DSL_6  12000.0
 UP BND  SELL_FO_6  5952.756689003731
 UP BND  PINV_FO_6  12000.0
 UP BND  ON_6  1.0
 UP BND  UP_6  1.0
 UP BND  RFON_6  1.0
 UP BND  BUY_SWEET_7  13713.652699633156
 LO BND  CINV_SWEET_7  2000.0
 UP BND  CINV_SWEET_7  40000.0
 UP BND  BUY_SOUR_7  5850.197348421052
 LO BND  CINV_SOUR_7  2000.0
 UP BND  CINV_SOUR_7  40000.0
 UP BND  IINV_N_7  15000.0
 UP BND  IINV_D_7  15000.0
 UP BND  IINV_R_7  15000.0
 UP BND  N_RF_7  5000.0
 UP BND  BU_G_7  3000.0
 UP BND  HD_D_7  4000.0
 UP BND  SELL_GAS_7  10222.488068545874
 UP BND  PINV_GAS_7  12000.0
 UP BND  SELL_DSL_7  12494.152083778292
 UP BND  PINV_DSL_7  12000.0
 UP BND  SELL_FO_7  6247.076041889146
 UP BND  PINV_FO_7  12000.0
 UP BND  ON_7  1.0
 UP BND  UP_7  1.0
 UP BND  RFON_7  1.0
ENDATA
