NAME          cargo_milp_t6
* SYNTHETIC refinery stress case; invented data, linear model only.
ROWS
 N  COST
 E  CARGO_SWEET_0
 E  CBAL_SWEET_0
 E  CARGO_SOUR_0
 E  CBAL_SOUR_0
 L  CAP_0
 E  IBAL_N_0
 E  IBAL_D_0
 E  IBAL_R_0
 E  RFBAL_0
 E  PBAL_GAS_0
 E  PBAL_DSL_0
 E  PBAL_FO_0
 G  OCT_0
 L  SULF_0
 L  MAXON_0
 G  MINON_0
 L  STARTUP_0
 L  RFMAX_0
 G  RFMIN_0
 E  CARGO_SWEET_1
 E  CBAL_SWEET_1
 E  CARGO_SOUR_1
 E  CBAL_SOUR_1
 L  CAP_1
 E  IBAL_N_1
 E  IBAL_D_1
 E  IBAL_R_1
 E  RFBAL_1
 E  PBAL_GAS_1
 E  PBAL_DSL_1
 E  PBAL_FO_1
 G  OCT_1
 L  SULF_1
 L  MAXON_1
 G  MINON_1
 L  STARTUP_1
 L  RFMAX_1
 G  RFMIN_1
 E  CARGO_SWEET_2
 E  CBAL_SWEET_2
 E  CARGO_SOUR_2
 E  CBAL_SOUR_2
 L  CAP_2
 E  IBAL_N_2
 E  IBAL_D_2
 E  IBAL_R_2
 E  RFBAL_2
 E  PBAL_GAS_2
 E  PBAL_DSL_2
 E  PBAL_FO_2
 G  OCT_2
 L  SULF_2
 L  MAXON_2
 G  MINON_2
 L  STARTUP_2
 L  RFMAX_2
 G  RFMIN_2
 E  CARGO_SWEET_3
 E  CBAL_SWEET_3
 E  CARGO_SOUR_3
 E  CBAL_SOUR_3
 L  CAP_3
 E  IBAL_N_3
 E  IBAL_D_3
 E  IBAL_R_3
 E  RFBAL_3
 E  PBAL_GAS_3
 E  PBAL_DSL_3
 E  PBAL_FO_3
 G  OCT_3
 L  SULF_3
 L  MAXON_3
 G  MINON_3
 L  STARTUP_3
 L  RFMAX_3
 G  RFMIN_3
 E  CARGO_SWEET_4
 E  CBAL_SWEET_4
 E  CARGO_SOUR_4
 E  CBAL_SOUR_4
 L  CAP_4
 E  IBAL_N_4
 E  IBAL_D_4
 E  IBAL_R_4
 E  RFBAL_4
 E  PBAL_GAS_4
 E  PBAL_DSL_4
 E  PBAL_FO_4
 G  OCT_4
 L  SULF_4
 L  MAXON_4
 G  MINON_4
 L  STARTUP_4
 L  RFMAX_4
 G  RFMIN_4
 E  CARGO_SWEET_5
 E  CBAL_SWEET_5
 E  CARGO_SOUR_5
 E  CBAL_SOUR_5
 L  CAP_5
 E  IBAL_N_5
 E  IBAL_D_5
 E  IBAL_R_5
 E  RFBAL_5
 E  PBAL_GAS_5
 E  PBAL_DSL_5
 E  PBAL_FO_5
 G  OCT_5
 L  SULF_5
 L  MAXON_5
 G  MINON_5
 L  STARTUP_5
 L  RFMAX_5
 G  RFMIN_5
COLUMNS
    MARKER                 'MARKER'                 'INTORG'
    K_SWEET_0  COST  156000.0
    K_SWEET_0  CARGO_SWEET_0  -2000.0
    MARKER                 'MARKER'                 'INTEND'
    BUY_SWEET_0  CARGO_SWEET_0  1.0
    BUY_SWEET_0  CBAL_SWEET_0  1.0
    CINV_SWEET_0  COST  0.15
    CINV_SWEET_0  CBAL_SWEET_0  -1.0
    CINV_SWEET_0  CBAL_SWEET_1  1.0
    RUN_SWEET_0  CAP_0  1.0
    RUN_SWEET_0  CBAL_SWEET_0  -1.0
    RUN_SWEET_0  IBAL_D_0  0.42
    RUN_SWEET_0  IBAL_N_0  0.28
    RUN_SWEET_0  IBAL_R_0  0.28
    RUN_SWEET_0  MAXON_0  1.0
    RUN_SWEET_0  MINON_0  1.0
    MARKER                 'MARKER'                 'INTORG'
    K_SOUR_0  COST  136000.0
    K_SOUR_0  CARGO_SOUR_0  -2000.0
    MARKER                 'MARKER'                 'INTEND'
    BUY_SOUR_0  CARGO_SOUR_0  1.0
    BUY_SOUR_0  CBAL_SOUR_0  1.0
    CINV_SOUR_0  COST  0.15
    CINV_SOUR_0  CBAL_SOUR_0  -1.0
    CINV_SOUR_0  CBAL_SOUR_1  1.0
    RUN_SOUR_0  CAP_0  1.0
    RUN_SOUR_0  CBAL_SOUR_0  -1.0
    RUN_SOUR_0  IBAL_D_0  0.38
    RUN_SOUR_0  IBAL_N_0  0.2
    RUN_SOUR_0  IBAL_R_0  0.4
    RUN_SOUR_0  MAXON_0  1.0
    RUN_SOUR_0  MINON_0  1.0
    IINV_N_0  COST  0.15
    IINV_N_0  IBAL_N_0  -1.0
    IINV_N_0  IBAL_N_1  1.0
    IINV_D_0  COST  0.15
    IINV_D_0  IBAL_D_0  -1.0
    IINV_D_0  IBAL_D_1  1.0
    IINV_R_0  COST  0.15
    IINV_R_0  IBAL_R_0  -1.0
    IINV_R_0  IBAL_R_1  1.0
    N_RF_0  COST  4.0
    N_RF_0  IBAL_N_0  -1.0
    N_RF_0  RFBAL_0  0.85
    N_RF_0  RFMAX_0  1.0
    N_RF_0  RFMIN_0  1.0
    N_G_0  IBAL_N_0  -1.0
    N_G_0  OCT_0  -15.0
    N_G_0  PBAL_GAS_0  1.0
    RF_G_0  OCT_0  13.0
    RF_G_0  PBAL_GAS_0  1.0
    RF_G_0  RFBAL_0  -1.0
    BU_G_0  COST  85.0
    BU_G_0  OCT_0  8.0
    BU_G_0  PBAL_GAS_0  1.0
    D_D_0  IBAL_D_0  -1.0
    D_D_0  PBAL_DSL_0  1.0
    D_D_0  SULF_0  0.2
    HD_D_0  COST  92.0
    HD_D_0  PBAL_DSL_0  1.0
    HD_D_0  SULF_0  -0.25
    R_FO_0  IBAL_R_0  -1.0
    R_FO_0  PBAL_FO_0  1.0
    SELL_GAS_0  COST  -107.63724872000891
    SELL_GAS_0  PBAL_GAS_0  -1.0
    PINV_GAS_0  COST  0.15
    PINV_GAS_0  PBAL_GAS_0  -1.0
    PINV_GAS_0  PBAL_GAS_1  1.0
    SELL_DSL_0  COST  -97.9318577901136
    SELL_DSL_0  PBAL_DSL_0  -1.0
    PINV_DSL_0  COST  0.15
    PINV_DSL_0  PBAL_DSL_0  -1.0
    PINV_DSL_0  PBAL_DSL_1  1.0
    SELL_FO_0  COST  -62.415687169997845
    SELL_FO_0  PBAL_FO_0  -1.0
    PINV_FO_0  COST  0.15
    PINV_FO_0  PBAL_FO_0  -1.0
    PINV_FO_0  PBAL_FO_1  1.0
    MARKER                 'MARKER'                 'INTORG'
    ON_0  COST  12000.0
    ON_0  MAXON_0  -30000.0
    ON_0  MINON_0  -8000.0
    ON_0  STARTUP_0  1.0
    ON_0  STARTUP_1  -1.0
    UP_0  COST  40000.0
    UP_0  STARTUP_0  -1.0
    RFON_0  COST  5000.0
    RFON_0  RFMAX_0  -5000.0
    RFON_0  RFMIN_0  -1500.0
    K_SWEET_1  COST  156000.0
    K_SWEET_1  CARGO_SWEET_1  -2000.0
    MARKER                 'MARKER'                 'INTEND'
    BUY_SWEET_1  CARGO_SWEET_1  1.0
    BUY_SWEET_1  CBAL_SWEET_1  1.0
    CINV_SWEET_1  COST  0.15
    CINV_SWEET_1  CBAL_SWEET_1  -1.0
    CINV_SWEET_1  CBAL_SWEET_2  1.0
    RUN_SWEET_1  CAP_1  1.0
    RUN_SWEET_1  CBAL_SWEET_1  -1.0
    RUN_SWEET_1  IBAL_D_1  0.42
    RUN_SWEET_1  IBAL_N_1  0.28
    RUN_SWEET_1  IBAL_R_1  0.28
    RUN_SWEET_1  MAXON_1  1.0
    RUN_SWEET_1  MINON_1  1.0
    MARKER                 'MARKER'                 'INTORG'
    K_SOUR_1  COST  136000.0
    K_SOUR_1  CARGO_SOUR_1  -2000.0
    MARKER                 'MARKER'                 'INTEND'
    BUY_SOUR_1  CARGO_SOUR_1  1.0
    BUY_SOUR_1  CBAL_SOUR_1  1.0
    CINV_SOUR_1  COST  0.15
    CINV_SOUR_1  CBAL_SOUR_1  -1.0
    CINV_SOUR_1  CBAL_SOUR_2  1.0
    RUN_SOUR_1  CAP_1  1.0
    RUN_SOUR_1  CBAL_SOUR_1  -1.0
    RUN_SOUR_1  IBAL_D_1  0.38
    RUN_SOUR_1  IBAL_N_1  0.2
    RUN_SOUR_1  IBAL_R_1  0.4
    RUN_SOUR_1  MAXON_1  1.0
    RUN_SOUR_1  MINON_1  1.0
    IINV_N_1  COST  0.15
    IINV_N_1  IBAL_N_1  -1.0
    IINV_N_1  IBAL_N_2  1.0
    IINV_D_1  COST  0.15
    IINV_D_1  IBAL_D_1  -1.0
    IINV_D_1  IBAL_D_2  1.0
    IINV_R_1  COST  0.15
    IINV_R_1  IBAL_R_1  -1.0
    IINV_R_1  IBAL_R_2  1.0
    N_RF_1  COST  4.0
    N_RF_1  IBAL_N_1  -1.0
    N_RF_1  RFBAL_1  0.85
    N_RF_1  RFMAX_1  1.0
    N_RF_1  RFMIN_1  1.0
    N_G_1  IBAL_N_1  -1.0
    N_G_1  OCT_1  -15.0
    N_G_1  PBAL_GAS_1  1.0
    RF_G_1  OCT_1  13.0
    RF_G_1  PBAL_GAS_1  1.0
    RF_G_1  RFBAL_1  -1.0
    BU_G_1  COST  85.0
    BU_G_1  OCT_1  8.0
    BU_G_1  PBAL_GAS_1  1.0
    D_D_1  IBAL_D_1  -1.0
    D_D_1  PBAL_DSL_1  1.0
    D_D_1  SULF_1  0.2
    HD_D_1  COST  92.0
    HD_D_1  PBAL_DSL_1  1.0
    HD_D_1  SULF_1  -0.25
    R_FO_1  IBAL_R_1  -1.0
    R_FO_1  PBAL_FO_1  1.0
    SELL_GAS_1  COST  -103.03264374056587
    SELL_GAS_1  PBAL_GAS_1  -1.0
    PINV_GAS_1  COST  0.15
    PINV_GAS_1  PBAL_GAS_1  -1.0
    PINV_GAS_1  PBAL_GAS_2  1.0
    SELL_DSL_1  COST  -95.53475866033746
    SELL_DSL_1  PBAL_DSL_1  -1.0
    PINV_DSL_1  COST  0.15
    PINV_DSL_1  PBAL_DSL_1  -1.0
    PINV_DSL_1  PBAL_DSL_2  1.0
    SELL_FO_1  COST  -62.88699790186016
    SELL_FO_1  PBAL_FO_1  -1.0
    PINV_FO_1  COST  0.15
    PINV_FO_1  PBAL_FO_1  -1.0
    PINV_FO_1  PBAL_FO_2  1.0
    MARKER                 'MARKER'                 'INTORG'
    ON_1  COST  12000.0
    ON_1  MAXON_1  -30000.0
    ON_1  MINON_1  -8000.0
    ON_1  STARTUP_1  1.0
    ON_1  STARTUP_2  -1.0
    UP_1  COST  40000.0
    UP_1  STARTUP_1  -1.0
    RFON_1  COST  5000.0
    RFON_1  RFMAX_1  -5000.0
    RFON_1  RFMIN_1  -1500.0
    K_SWEET_2  COST  156000.0
    K_SWEET_2  CARGO_SWEET_2  -2000.0
    MARKER                 'MARKER'                 'INTEND'
    BUY_SWEET_2  CARGO_SWEET_2  1.0
    BUY_SWEET_2  CBAL_SWEET_2  1.0
    CINV_SWEET_2  COST  0.15
    CINV_SWEET_2  CBAL_SWEET_2  -1.0
    CINV_SWEET_2  CBAL_SWEET_3  1.0
    RUN_SWEET_2  CAP_2  1.0
    RUN_SWEET_2  CBAL_SWEET_2  -1.0
    RUN_SWEET_2  IBAL_D_2  0.42
    RUN_SWEET_2  IBAL_N_2  0.28
    RUN_SWEET_2  IBAL_R_2  0.28
    RUN_SWEET_2  MAXON_2  1.0
    RUN_SWEET_2  MINON_2  1.0
    MARKER                 'MARKER'                 'INTORG'
    K_SOUR_2  COST  136000.0
    K_SOUR_2  CARGO_SOUR_2  -2000.0
    MARKER                 'MARKER'                 'INTEND'
    BUY_SOUR_2  CARGO_SOUR_2  1.0
    BUY_SOUR_2  CBAL_SOUR_2  1.0
    CINV_SOUR_2  COST  0.15
    CINV_SOUR_2  CBAL_SOUR_2  -1.0
    CINV_SOUR_2  CBAL_SOUR_3  1.0
    RUN_SOUR_2  CAP_2  1.0
    RUN_SOUR_2  CBAL_SOUR_2  -1.0
    RUN_SOUR_2  IBAL_D_2  0.38
    RUN_SOUR_2  IBAL_N_2  0.2
    RUN_SOUR_2  IBAL_R_2  0.4
    RUN_SOUR_2  MAXON_2  1.0
    RUN_SOUR_2  MINON_2  1.0
    IINV_N_2  COST  0.15
    IINV_N_2  IBAL_N_2  -1.0
    IINV_N_2  IBAL_N_3  1.0
    IINV_D_2  COST  0.15
    IINV_D_2  IBAL_D_2  -1.0
    IINV_D_2  IBAL_D_3  1.0
    IINV_R_2  COST  0.15
    IINV_R_2  IBAL_R_2  -1.0
    IINV_R_2  IBAL_R_3  1.0
    N_RF_2  COST  4.0
    N_RF_2  IBAL_N_2  -1.0
    N_RF_2  RFBAL_2  0.85
    N_RF_2  RFMAX_2  1.0
    N_RF_2  RFMIN_2  1.0
    N_G_2  IBAL_N_2  -1.0
    N_G_2  OCT_2  -15.0
    N_G_2  PBAL_GAS_2  1.0
    RF_G_2  OCT_2  13.0
    RF_G_2  PBAL_GAS_2  1.0
    RF_G_2  RFBAL_2  -1.0
    BU_G_2  COST  85.0
    BU_G_2  OCT_2  8.0
    BU_G_2  PBAL_GAS_2  1.0
    D_D_2  IBAL_D_2  -1.0
    D_D_2  PBAL_DSL_2  1.0
    D_D_2  SULF_2  0.2
    HD_D_2  COST  92.0
    HD_D_2  PBAL_DSL_2  1.0
    HD_D_2  SULF_2  -0.25
    R_FO_2  IBAL_R_2  -1.0
    R_FO_2  PBAL_FO_2  1.0
    SELL_GAS_2  COST  -103.57674471055101
    SELL_GAS_2  PBAL_GAS_2  -1.0
    PINV_GAS_2  COST  0.15
    PINV_GAS_2  PBAL_GAS_2  -1.0
    PINV_GAS_2  PBAL_GAS_3  1.0
    SELL_DSL_2  COST  -97.49570191219658
    SELL_DSL_2  PBAL_DSL_2  -1.0
    PINV_DSL_2  COST  0.15
    PINV_DSL_2  PBAL_DSL_2  -1.0
    PINV_DSL_2  PBAL_DSL_3  1.0
    SELL_FO_2  COST  -61.24141734976917
    SELL_FO_2  PBAL_FO_2  -1.0
    PINV_FO_2  COST  0.15
    PINV_FO_2  PBAL_FO_2  -1.0
    PINV_FO_2  PBAL_FO_3  1.0
    MARKER                 'MARKER'                 'INTORG'
    ON_2  COST  12000.0
    ON_2  MAXON_2  -30000.0
    ON_2  MINON_2  -8000.0
    ON_2  STARTUP_2  1.0
    ON_2  STARTUP_3  -1.0
    UP_2  COST  40000.0
    UP_2  STARTUP_2  -1.0
    RFON_2  COST  5000.0
    RFON_2  RFMAX_2  -5000.0
    RFON_2  RFMIN_2  -1500.0
    K_SWEET_3  COST  156000.0
    K_SWEET_3  CARGO_SWEET_3  -2000.0
    MARKER                 'MARKER'                 'INTEND'
    BUY_SWEET_3  CARGO_SWEET_3  1.0
    BUY_SWEET_3  CBAL_SWEET_3  1.0
    CINV_SWEET_3  COST  0.15
    CINV_SWEET_3  CBAL_SWEET_3  -1.0
    CINV_SWEET_3  CBAL_SWEET_4  1.0
    RUN_SWEET_3  CAP_3  1.0
    RUN_SWEET_3  CBAL_SWEET_3  -1.0
    RUN_SWEET_3  IBAL_D_3  0.42
    RUN_SWEET_3  IBAL_N_3  0.28
    RUN_SWEET_3  IBAL_R_3  0.28
    RUN_SWEET_3  MAXON_3  1.0
    RUN_SWEET_3  MINON_3  1.0
    MARKER                 'MARKER'                 'INTORG'
    K_SOUR_3  COST  136000.0
    K_SOUR_3  CARGO_SOUR_3  -2000.0
    MARKER                 'MARKER'                 'INTEND'
    BUY_SOUR_3  CARGO_SOUR_3  1.0
    BUY_SOUR_3  CBAL_SOUR_3  1.0
    CINV_SOUR_3  COST  0.15
    CINV_SOUR_3  CBAL_SOUR_3  -1.0
    CINV_SOUR_3  CBAL_SOUR_4  1.0
    RUN_SOUR_3  CAP_3  1.0
    RUN_SOUR_3  CBAL_SOUR_3  -1.0
    RUN_SOUR_3  IBAL_D_3  0.38
    RUN_SOUR_3  IBAL_N_3  0.2
    RUN_SOUR_3  IBAL_R_3  0.4
    RUN_SOUR_3  MAXON_3  1.0
    RUN_SOUR_3  MINON_3  1.0
    IINV_N_3  COST  0.15
    IINV_N_3  IBAL_N_3  -1.0
    IINV_N_3  IBAL_N_4  1.0
    IINV_D_3  COST  0.15
    IINV_D_3  IBAL_D_3  -1.0
    IINV_D_3  IBAL_D_4  1.0
    IINV_R_3  COST  0.15
    IINV_R_3  IBAL_R_3  -1.0
    IINV_R_3  IBAL_R_4  1.0
    N_RF_3  COST  4.0
    N_RF_3  IBAL_N_3  -1.0
    N_RF_3  RFBAL_3  0.85
    N_RF_3  RFMAX_3  1.0
    N_RF_3  RFMIN_3  1.0
    N_G_3  IBAL_N_3  -1.0
    N_G_3  OCT_3  -15.0
    N_G_3  PBAL_GAS_3  1.0
    RF_G_3  OCT_3  13.0
    RF_G_3  PBAL_GAS_3  1.0
    RF_G_3  RFBAL_3  -1.0
    BU_G_3  COST  85.0
    BU_G_3  OCT_3  8.0
    BU_G_3  PBAL_GAS_3  1.0
    D_D_3  IBAL_D_3  -1.0
    D_D_3  PBAL_DSL_3  1.0
    D_D_3  SULF_3  0.2
    HD_D_3  COST  92.0
    HD_D_3  PBAL_DSL_3  1.0
    HD_D_3  SULF_3  -0.25
    R_FO_3  IBAL_R_3  -1.0
    R_FO_3  PBAL_FO_3  1.0
    SELL_GAS_3  COST  -103.5246604404737
    SELL_GAS_3  PBAL_GAS_3  -1.0
    PINV_GAS_3  COST  0.15
    PINV_GAS_3  PBAL_GAS_3  -1.0
    PINV_GAS_3  PBAL_GAS_4  1.0
    SELL_DSL_3  COST  -96.73395297817122
    SELL_DSL_3  PBAL_DSL_3  -1.0
    PINV_DSL_3  COST  0.15
    PINV_DSL_3  PBAL_DSL_3  -1.0
    PINV_DSL_3  PBAL_DSL_4  1.0
    SELL_FO_3  COST  -61.08334812547849
    SELL_FO_3  PBAL_FO_3  -1.0
    PINV_FO_3  COST  0.15
    PINV_FO_3  PBAL_FO_3  -1.0
    PINV_FO_3  PBAL_FO_4  1.0
    MARKER                 'MARKER'                 'INTORG'
    ON_3  COST  12000.0
    ON_3  MAXON_3  -30000.0
    ON_3  MINON_3  -8000.0
    ON_3  STARTUP_3  1.0
    ON_3  STARTUP_4  -1.0
    UP_3  COST  40000.0
    UP_3  STARTUP_3  -1.0
    RFON_3  COST  5000.0
    RFON_3  RFMAX_3  -5000.0
    RFON_3  RFMIN_3  -1500.0
    K_SWEET_4  COST  156000.0
    K_SWEET_4  CARGO_SWEET_4  -2000.0
    MARKER                 'MARKER'                 'INTEND'
    BUY_SWEET_4  CARGO_SWEET_4  1.0
    BUY_SWEET_4  CBAL_SWEET_4  1.0
    CINV_SWEET_4  COST  0.15
    CINV_SWEET_4  CBAL_SWEET_4  -1.0
    CINV_SWEET_4  CBAL_SWEET_5  1.0
    RUN_SWEET_4  CAP_4  1.0
    RUN_SWEET_4  CBAL_SWEET_4  -1.0
    RUN_SWEET_4  IBAL_D_4  0.42
    RUN_SWEET_4  IBAL_N_4  0.28
    RUN_SWEET_4  IBAL_R_4  0.28
    RUN_SWEET_4  MAXON_4  1.0
    RUN_SWEET_4  MINON_4  1.0
    MARKER                 'MARKER'                 'INTORG'
    K_SOUR_4  COST  136000.0
    K_SOUR_4  CARGO_SOUR_4  -2000.0
    MARKER                 'MARKER'                 'INTEND'
    BUY_SOUR_4  CARGO_SOUR_4  1.0
    BUY_SOUR_4  CBAL_SOUR_4  1.0
    CINV_SOUR_4  COST  0.15
    CINV_SOUR_4  CBAL_SOUR_4  -1.0
    CINV_SOUR_4  CBAL_SOUR_5  1.0
    RUN_SOUR_4  CAP_4  1.0
    RUN_SOUR_4  CBAL_SOUR_4  -1.0
    RUN_SOUR_4  IBAL_D_4  0.38
    RUN_SOUR_4  IBAL_N_4  0.2
    RUN_SOUR_4  IBAL_R_4  0.4
    RUN_SOUR_4  MAXON_4  1.0
    RUN_SOUR_4  MINON_4  1.0
    IINV_N_4  COST  0.15
    IINV_N_4  IBAL_N_4  -1.0
    IINV_N_4  IBAL_N_5  1.0
    IINV_D_4  COST  0.15
    IINV_D_4  IBAL_D_4  -1.0
    IINV_D_4  IBAL_D_5  1.0
    IINV_R_4  COST  0.15
    IINV_R_4  IBAL_R_4  -1.0
    IINV_R_4  IBAL_R_5  1.0
    N_RF_4  COST  4.0
    N_RF_4  IBAL_N_4  -1.0
    N_RF_4  RFBAL_4  0.85
    N_RF_4  RFMAX_4  1.0
    N_RF_4  RFMIN_4  1.0
    N_G_4  IBAL_N_4  -1.0
    N_G_4  OCT_4  -15.0
    N_G_4  PBAL_GAS_4  1.0
    RF_G_4  OCT_4  13.0
    RF_G_4  PBAL_GAS_4  1.0
    RF_G_4  RFBAL_4  -1.0
    BU_G_4  COST  85.0
    BU_G_4  OCT_4  8.0
    BU_G_4  PBAL_GAS_4  1.0
    D_D_4  IBAL_D_4  -1.0
    D_D_4  PBAL_DSL_4  1.0
    D_D_4  SULF_4  0.2
    HD_D_4  COST  92.0
    HD_D_4  PBAL_DSL_4  1.0
    HD_D_4  SULF_4  -0.25
    R_FO_4  IBAL_R_4  -1.0
    R_FO_4  PBAL_FO_4  1.0
    SELL_GAS_4  COST  -107.92276233312803
    SELL_GAS_4  PBAL_GAS_4  -1.0
    PINV_GAS_4  COST  0.15
    PINV_GAS_4  PBAL_GAS_4  -1.0
    PINV_GAS_4  PBAL_GAS_5  1.0
    SELL_DSL_4  COST  -100.70613308587988
    SELL_DSL_4  PBAL_DSL_4  -1.0
    PINV_DSL_4  COST  0.15
    PINV_DSL_4  PBAL_DSL_4  -1.0
    PINV_DSL_4  PBAL_DSL_5  1.0
    SELL_FO_4  COST  -60.840902518816875
    SELL_FO_4  PBAL_FO_4  -1.0
    PINV_FO_4  COST  0.15
    PINV_FO_4  PBAL_FO_4  -1.0
    PINV_FO_4  PBAL_FO_5  1.0
    MARKER                 'MARKER'                 'INTORG'
    ON_4  COST  12000.0
    ON_4  MAXON_4  -30000.0
    ON_4  MINON_4  -8000.0
    ON_4  STARTUP_4  1.0
    ON_4  STARTUP_5  -1.0
    UP_4  COST  40000.0
    UP_4  STARTUP_4  -1.0
    RFON_4  COST  5000.0
    RFON_4  RFMAX_4  -5000.0
    RFON_4  RFMIN_4  -1500.0
    K_SWEET_5  COST  156000.0
    K_SWEET_5  CARGO_SWEET_5  -2000.0
    MARKER                 'MARKER'                 'INTEND'
    BUY_SWEET_5  CARGO_SWEET_5  1.0
    BUY_SWEET_5  CBAL_SWEET_5  1.0
    CINV_SWEET_5  COST  0.15
    CINV_SWEET_5  CBAL_SWEET_5  -1.0
    RUN_SWEET_5  CAP_5  1.0
    RUN_SWEET_5  CBAL_SWEET_5  -1.0
    RUN_SWEET_5  IBAL_D_5  0.42
    RUN_SWEET_5  IBAL_N_5  0.28
    RUN_SWEET_5  IBAL_R_5  0.28
    RUN_SWEET_5  MAXON_5  1.0
    RUN_SWEET_5  MINON_5  1.0
    MARKER                 'MARKER'                 'INTORG'
    K_SOUR_5  COST  136000.0
    K_SOUR_5  CARGO_SOUR_5  -2000.0
    MARKER                 'MARKER'                 'INTEND'
    BUY_SOUR_5  CARGO_SOUR_5  1.0
    BUY_SOUR_5  CBAL_SOUR_5  1.0
    CINV_SOUR_5  COST  0.15
    CINV_SOUR_5  CBAL_SOUR_5  -1.0
    RUN_SOUR_5  CAP_5  1.0
    RUN_SOUR_5  CBAL_SOUR_5  -1.0
    RUN_SOUR_5  IBAL_D_5  0.38
    RUN_SOUR_5  IBAL_N_5  0.2
    RUN_SOUR_5  IBAL_R_5  0.4
    RUN_SOUR_5  MAXON_5  1.0
    RUN_SOUR_5  MINON_5  1.0
    IINV_N_5  COST  0.15
    IINV_N_5  IBAL_N_5  -1.0
    IINV_D_5  COST  0.15
    IINV_D_5  IBAL_D_5  -1.0
    IINV_R_5  COST  0.15
    IINV_R_5  IBAL_R_5  -1.0
    N_RF_5  COST  4.0
    N_RF_5  IBAL_N_5  -1.0
    N_RF_5  RFBAL_5  0.85
    N_RF_5  RFMAX_5  1.0
    N_RF_5  RFMIN_5  1.0
    N_G_5  IBAL_N_5  -1.0
    N_G_5  OCT_5  -15.0
    N_G_5  PBAL_GAS_5  1.0
    RF_G_5  OCT_5  13.0
    RF_G_5  PBAL_GAS_5  1.0
    RF_G_5  RFBAL_5  -1.0
    BU_G_5  COST  85.0
    BU_G_5  OCT_5  8.0
    BU_G_5  PBAL_GAS_5  1.0
    D_D_5  IBAL_D_5  -1.0
    D_D_5  PBAL_DSL_5  1.0
    D_D_5  SULF_5  0.2
    HD_D_5  COST  92.0
    HD_D_5  PBAL_DSL_5  1.0
    HD_D_5  SULF_5  -0.25
    R_FO_5  IBAL_R_5  -1.0
    R_FO_5  PBAL_FO_5  1.0
    SELL_GAS_5  COST  -106.76094188899984
    SELL_GAS_5  PBAL_GAS_5  -1.0
    PINV_GAS_5  COST  0.15
    PINV_GAS_5  PBAL_GAS_5  -1.0
    SELL_DSL_5  COST  -95.19484658354179
    SELL_DSL_5  PBAL_DSL_5  -1.0
    PINV_DSL_5  COST  0.15
    PINV_DSL_5  PBAL_DSL_5  -1.0
    SELL_FO_5  COST  -62.2889058322427
    SELL_FO_5  PBAL_FO_5  -1.0
    PINV_FO_5  COST  0.15
    PINV_FO_5  PBAL_FO_5  -1.0
    MARKER                 'MARKER'                 'INTORG'
    ON_5  COST  12000.0
    ON_5  MAXON_5  -30000.0
    ON_5  MINON_5  -8000.0
    ON_5  STARTUP_5  1.0
    UP_5  COST  40000.0
    UP_5  STARTUP_5  -1.0
    RFON_5  COST  5000.0
    RFON_5  RFMAX_5  -5000.0
    RFON_5  RFMIN_5  -1500.0
    MARKER                 'MARKER'                 'INTEND'
RHS
    RHS  CBAL_SWEET_0  -2000.0
    RHS  CBAL_SOUR_0  -2000.0
    RHS  CAP_0  30000.0
    RHS  CAP_1  30000.0
    RHS  CAP_2  30000.0
    RHS  CAP_3  30000.0
    RHS  CAP_4  30000.0
    RHS  CAP_5  30000.0
BOUNDS
 UP BND  K_SWEET_0  7.0
 UP BND  CINV_SWEET_0  40000.0
 UP BND  K_SOUR_0  9.0
 UP BND  CINV_SOUR_0  40000.0
 UP BND  IINV_N_0  15000.0
 UP BND  IINV_D_0  15000.0
 UP BND  IINV_R_0  15000.0
 UP BND  N_RF_0  5000.0
 UP BND  BU_G_0  3000.0
 UP BND  HD_D_0  4000.0
 UP BND  SELL_GAS_0  9311.016331571867
 UP BND  PINV_GAS_0  12000.0
 UP BND  SELL_DSL_0  11380.131071921172
 UP BND  PINV_DSL_0  12000.0
 UP BND  SELL_FO_0  5690.065535960586
 UP BND  PINV_FO_0  12000.0
 UP BND  ON_0  1.0
 UP BND  UP_0  1.0
 UP BND  RFON_0  1.0
 UP BND  K_SWEET_1  7.0
 UP BND  CINV_SWEET_1  40000.0
 UP BND  K_SOUR_1  9.0
 UP BND  CINV_SOUR_1  40000.0
 UP BND  IINV_N_1  15000.0
 UP BND  IINV_D_1  15000.0
 UP BND  IINV_R_1  15000.0
 UP BND  N_RF_1  5000.0
 UP BND  BU_G_1  3000.0
 UP BND  HD_D_1  4000.0
 UP BND  SELL_GAS_1  10297.998567724302
 UP BND  PINV_GAS_1  12000.0
 UP BND  SELL_DSL_1  12586.442693885258
 UP BND  PINV_DSL_1  12000.0
 UP BND  SELL_FO_1  6293.221346942629
 UP BND  PINV_FO_1  12000.0
 UP BND  ON_1  1.0
 UP BND  UP_1  1.0
 UP BND  RFON_1  1.0
 UP BND  K_SWEET_2  6.0
 UP BND  CINV_SWEET_2  40000.0
 UP BND  K_SOUR_2  11.0
 UP BND  CINV_SOUR_2  40000.0
 UP BND  IINV_N_2  15000.0
 UP BND  IINV_D_2  15000.0
 UP BND  IINV_R_2  15000.0
 UP BND  N_RF_2  5000.0
 UP BND  BU_G_2  3000.0
 UP BND  HD_D_2  4000.0
 UP BND  SELL_GAS_2  9745.536260669482
 UP BND  PINV_GAS_2  12000.0
 UP BND  SELL_DSL_2  11911.210985262698
 UP BND  PINV_DSL_2  12000.0
 UP BND  SELL_FO_2  5955.605492631349
 UP BND  PINV_FO_2  12000.0
 UP BND  ON_2  1.0
 UP BND  UP_2  1.0
 UP BND  RFON_2  1.0
 UP BND  K_SWEET_3  7.0
 UP BND  CINV_SWEET_3  40000.0
 UP BND  K_SOUR_3  10.0
 UP BND  CINV_SOUR_3  40000.0
 UP BND  IINV_N_3  15000.0
 UP BND  IINV_D_3  15000.0
 UP BND  IINV_R_3  15000.0
 UP BND  N_RF_3  5000.0
 UP BND  BU_G_3  3000.0
 UP BND  HD_D_3  4000.0
 UP BND  SELL_GAS_3  8173.930116593711
 UP BND  PINV_GAS_3  12000.0
 UP BND  SELL_DSL_3  9990.359031392314
 UP BND  PINV_DSL_3  12000.0
 UP BND  SELL_FO_3  4995.179515696157
 UP BND  PINV_FO_3  12000.0
 UP BND  ON_3  1.0
 UP BND  UP_3  1.0
 UP BND  RFON_3  1.0
 UP BND  K_SWEET_4  6.0
 UP BND  CINV_SWEET_4  40000.0
 UP BND  K_SOUR_4  8.0
 UP BND  CINV_SOUR_4  40000.0
 UP BND  IINV_N_4  15000.0
 UP BND  IINV_D_4  15000.0
 UP BND  IINV_R_4  15000.0
 UP BND  N_RF_4  5000.0
 UP BND  BU_G_4  3000.0
 UP BND  HD_D_4  4000.0
 UP BND  SELL_GAS_4  7671.950111860809
 UP BND  PINV_GAS_4  12000.0
 UP BND  SELL_DSL_4  9376.827914496544
 UP BND  PINV_DSL_4  12000.0
 UP BND  SELL_FO_4  4688.413957248272
 UP BND  PINV_FO_4  12000.0
 UP BND  ON_4  1.0
 UP BND  UP_4  1.0
 UP BND  RFON_4  1.0
 UP BND  K_SWEET_5  6.0
 LO BND  CINV_SWEET_5  2000.0
 UP BND  CINV_SWEET_5  40000.0
 UP BND  K_SOUR_5  10.0
 LO BND  CINV_SOUR_5  2000.0
 UP BND  CINV_SOUR_5  40000.0
 UP BND  IINV_N_5  15000.0
 UP BND  IINV_D_5  15000.0
 UP BND  IINV_R_5  15000.0
 UP BND  N_RF_5  5000.0
 UP BND  BU_G_5  3000.0
 UP BND  HD_D_5  4000.0
 UP BND  SELL_GAS_5  7848.423863040847
 UP BND  PINV_GAS_5  12000.0
 UP BND  SELL_DSL_5  9592.518054827702
 UP BND  PINV_DSL_5  12000.0
 UP BND  SELL_FO_5  4796.259027413851
 UP BND  PINV_FO_5  12000.0
 UP BND  ON_5  1.0
 UP BND  UP_5  1.0
 UP BND  RFON_5  1.0
ENDATA
