NAME          sour_outage_lp
* SYNTHETIC refinery stress case; invented data, linear model only.
ROWS
 N  COST
 E  CBAL_SWEET_0
 E  CBAL_SOUR_0
 L  CAP_0
 E  IBAL_N_0
 E  IBAL_D_0
 E  IBAL_R_0
 E  RFBAL_0
 E  PBAL_GAS_0
 E  PBAL_DSL_0
 E  PBAL_FO_0
 G  OCT_0
 L  SULF_0
 E  CBAL_SWEET_1
 E  CBAL_SOUR_1
 L  CAP_1
 E  IBAL_N_1
 E  IBAL_D_1
 E  IBAL_R_1
 E  RFBAL_1
 E  PBAL_GAS_1
 E  PBAL_DSL_1
 E  PBAL_FO_1
 G  OCT_1
 L  SULF_1
 E  CBAL_SWEET_2
 E  CBAL_SOUR_2
 L  CAP_2
 E  IBAL_N_2
 E  IBAL_D_2
 E  IBAL_R_2
 E  RFBAL_2
 E  PBAL_GAS_2
 E  PBAL_DSL_2
 E  PBAL_FO_2
 G  OCT_2
 L  SULF_2
 E  CBAL_SWEET_3
 E  CBAL_SOUR_3
 L  CAP_3
 E  IBAL_N_3
 E  IBAL_D_3
 E  IBAL_R_3
 E  RFBAL_3
 E  PBAL_GAS_3
 E  PBAL_DSL_3
 E  PBAL_FO_3
 G  OCT_3
 L  SULF_3
 E  CBAL_SWEET_4
 E  CBAL_SOUR_4
 L  CAP_4
 E  IBAL_N_4
 E  IBAL_D_4
 E  IBAL_R_4
 E  RFBAL_4
 E  PBAL_GAS_4
 E  PBAL_DSL_4
 E  PBAL_FO_4
 G  OCT_4
 L  SULF_4
 E  CBAL_SWEET_5
 E  CBAL_SOUR_5
 L  CAP_5
 E  IBAL_N_5
 E  IBAL_D_5
 E  IBAL_R_5
 E  RFBAL_5
 E  PBAL_GAS_5
 E  PBAL_DSL_5
 E  PBAL_FO_5
 G  OCT_5
 L  SULF_5
 E  CBAL_SWEET_6
 E  CBAL_SOUR_6
 L  CAP_6
 E  IBAL_N_6
 E  IBAL_D_6
 E  IBAL_R_6
 E  RFBAL_6
 E  PBAL_GAS_6
 E  PBAL_DSL_6
 E  PBAL_FO_6
 G  OCT_6
 L  SULF_6
 E  CBAL_SWEET_7
 E  CBAL_SOUR_7
 L  CAP_7
 E  IBAL_N_7
 E  IBAL_D_7
 E  IBAL_R_7
 E  RFBAL_7
 E  PBAL_GAS_7
 E  PBAL_DSL_7
 E  PBAL_FO_7
 G  OCT_7
 L  SULF_7
 E  CBAL_SWEET_8
 E  CBAL_SOUR_8
 L  CAP_8
 E  IBAL_N_8
 E  IBAL_D_8
 E  IBAL_R_8
 E  RFBAL_8
 E  PBAL_GAS_8
 E  PBAL_DSL_8
 E  PBAL_FO_8
 G  OCT_8
 L  SULF_8
 E  CBAL_SWEET_9
 E  CBAL_SOUR_9
 L  CAP_9
 E  IBAL_N_9
 E  IBAL_D_9
 E  IBAL_R_9
 E  RFBAL_9
 E  PBAL_GAS_9
 E  PBAL_DSL_9
 E  PBAL_FO_9
 G  OCT_9
 L  SULF_9
 E  CBAL_SWEET_10
 E  CBAL_SOUR_10
 L  CAP_10
 E  IBAL_N_10
 E  IBAL_D_10
 E  IBAL_R_10
 E  RFBAL_10
 E  PBAL_GAS_10
 E  PBAL_DSL_10
 E  PBAL_FO_10
 G  OCT_10
 L  SULF_10
 E  CBAL_SWEET_11
 E  CBAL_SOUR_11
 L  CAP_11
 E  IBAL_N_11
 E  IBAL_D_11
 E  IBAL_R_11
 E  RFBAL_11
 E  PBAL_GAS_11
 E  PBAL_DSL_11
 E  PBAL_FO_11
 G  OCT_11
 L  SULF_11
COLUMNS
    BUY_SWEET_0  COST  78.38736732745393
    BUY_SWEET_0  CBAL_SWEET_0  1.0
    CINV_SWEET_0  COST  0.15
    CINV_SWEET_0  CBAL_SWEET_0  -1.0
    CINV_SWEET_0  CBAL_SWEET_1  1.0
    RUN_SWEET_0  CAP_0  1.0
    RUN_SWEET_0  CBAL_SWEET_0  -1.0
    RUN_SWEET_0  IBAL_D_0  0.42
    RUN_SWEET_0  IBAL_N_0  0.28
    RUN_SWEET_0  IBAL_R_0  0.28
    BUY_SOUR_0  COST  67.45850105419493
    BUY_SOUR_0  CBAL_SOUR_0  1.0
    CINV_SOUR_0  COST  0.15
    CINV_SOUR_0  CBAL_SOUR_0  -1.0
    CINV_SOUR_0  CBAL_SOUR_1  1.0
    RUN_SOUR_0  CAP_0  1.0
    RUN_SOUR_0  CBAL_SOUR_0  -1.0
    RUN_SOUR_0  IBAL_D_0  0.38
    RUN_SOUR_0  IBAL_N_0  0.2
    RUN_SOUR_0  IBAL_R_0  0.4
    IINV_N_0  COST  0.15
    IINV_N_0  IBAL_N_0  -1.0
    IINV_N_0  IBAL_N_1  1.0
    IINV_D_0  COST  0.15
    IINV_D_0  IBAL_D_0  -1.0
    IINV_D_0  IBAL_D_1  1.0
    IINV_R_0  COST  0.15
    IINV_R_0  IBAL_R_0  -1.0
    IINV_R_0  IBAL_R_1  1.0
    N_RF_0  COST  4.0
    N_RF_0  IBAL_N_0  -1.0
    N_RF_0  RFBAL_0  0.85
    N_G_0  IBAL_N_0  -1.0
    N_G_0  OCT_0  -15.0
    N_G_0  PBAL_GAS_0  1.0
    RF_G_0  OCT_0  13.0
    RF_G_0  PBAL_GAS_0  1.0
    RF_G_0  RFBAL_0  -1.0
    BU_G_0  COST  85.0
    BU_G_0  OCT_0  8.0
    BU_G_0  PBAL_GAS_0  1.0
    D_D_0  IBAL_D_0  -1.0
    D_D_0  PBAL_DSL_0  1.0
    D_D_0  SULF_0  0.2
    HD_D_0  COST  92.0
    HD_D_0  PBAL_DSL_0  1.0
    HD_D_0  SULF_0  -0.25
    R_FO_0  IBAL_R_0  -1.0
    R_FO_0  PBAL_FO_0  1.0
    SELL_GAS_0  COST  -103.93110937232441
    SELL_GAS_0  PBAL_GAS_0  -1.0
    PINV_GAS_0  COST  0.15
    PINV_GAS_0  PBAL_GAS_0  -1.0
    PINV_GAS_0  PBAL_GAS_1  1.0
    SELL_DSL_0  COST  -96.2633339681425
    SELL_DSL_0  PBAL_DSL_0  -1.0
    PINV_DSL_0  COST  0.15
    PINV_DSL_0  PBAL_DSL_0  -1.0
    PINV_DSL_0  PBAL_DSL_1  1.0
    SELL_FO_0  COST  -62.443687994824465
    SELL_FO_0  PBAL_FO_0  -1.0
    PINV_FO_0  COST  0.15
    PINV_FO_0  PBAL_FO_0  -1.0
    PINV_FO_0  PBAL_FO_1  1.0
    BUY_SWEET_1  COST  78.94484389560048
    BUY_SWEET_1  CBAL_SWEET_1  1.0
    CINV_SWEET_1  COST  0.15
    CINV_SWEET_1  CBAL_SWEET_1  -1.0
    CINV_SWEET_1  CBAL_SWEET_2  1.0
    RUN_SWEET_1  CAP_1  1.0
    RUN_SWEET_1  CBAL_SWEET_1  -1.0
    RUN_SWEET_1  IBAL_D_1  0.42
    RUN_SWEET_1  IBAL_N_1  0.28
    RUN_SWEET_1  IBAL_R_1  0.28
    BUY_SOUR_1  COST  65.51514362834554
    BUY_SOUR_1  CBAL_SOUR_1  1.0
    CINV_SOUR_1  COST  0.15
    CINV_SOUR_1  CBAL_SOUR_1  -1.0
    CINV_SOUR_1  CBAL_SOUR_2  1.0
    RUN_SOUR_1  CAP_1  1.0
    RUN_SOUR_1  CBAL_SOUR_1  -1.0
    RUN_SOUR_1  IBAL_D_1  0.38
    RUN_SOUR_1  IBAL_N_1  0.2
    RUN_SOUR_1  IBAL_R_1  0.4
    IINV_N_1  COST  0.15
    IINV_N_1  IBAL_N_1  -1.0
    IINV_N_1  IBAL_N_2  1.0
    IINV_D_1  COST  0.15
    IINV_D_1  IBAL_D_1  -1.0
    IINV_D_1  IBAL_D_2  1.0
    IINV_R_1  COST  0.15
    IINV_R_1  IBAL_R_1  -1.0
    IINV_R_1  IBAL_R_2  1.0
    N_RF_1  COST  4.0
    N_RF_1  IBAL_N_1  -1.0
    N_RF_1  RFBAL_1  0.85
    N_G_1  IBAL_N_1  -1.0
    N_G_1  OCT_1  -15.0
    N_G_1  PBAL_GAS_1  1.0
    RF_G_1  OCT_1  13.0
    RF_G_1  PBAL_GAS_1  1.0
    RF_G_1  RFBAL_1  -1.0
    BU_G_1  COST  85.0
    BU_G_1  OCT_1  8.0
    BU_G_1  PBAL_GAS_1  1.0
    D_D_1  IBAL_D_1  -1.0
    D_D_1  PBAL_DSL_1  1.0
    D_D_1  SULF_1  0.2
    HD_D_1  COST  92.0
    HD_D_1  PBAL_DSL_1  1.0
    HD_D_1  SULF_1  -0.25
    R_FO_1  IBAL_R_1  -1.0
    R_FO_1  PBAL_FO_1  1.0
    SELL_GAS_1  COST  -105.0855421639742
    SELL_GAS_1  PBAL_GAS_1  -1.0
    PINV_GAS_1  COST  0.15
    PINV_GAS_1  PBAL_GAS_1  -1.0
    PINV_GAS_1  PBAL_GAS_2  1.0
    SELL_DSL_1  COST  -96.14450641000386
    SELL_DSL_1  PBAL_DSL_1  -1.0
    PINV_DSL_1  COST  0.15
    PINV_DSL_1  PBAL_DSL_1  -1.0
    PINV_DSL_1  PBAL_DSL_2  1.0
    SELL_FO_1  COST  -63.061446749878016
    SELL_FO_1  PBAL_FO_1  -1.0
    PINV_FO_1  COST  0.15
    PINV_FO_1  PBAL_FO_1  -1.0
    PINV_FO_1  PBAL_FO_2  1.0
    BUY_SWEET_2  COST  80.70317958578825
    BUY_SWEET_2  CBAL_SWEET_2  1.0
    CINV_SWEET_2  COST  0.15
    CINV_SWEET_2  CBAL_SWEET_2  -1.0
    CINV_SWEET_2  CBAL_SWEET_3  1.0
    RUN_SWEET_2  CAP_2  1.0
    RUN_SWEET_2  CBAL_SWEET_2  -1.0
    RUN_SWEET_2  IBAL_D_2  0.42
    RUN_SWEET_2  IBAL_N_2  0.28
    RUN_SWEET_2  IBAL_R_2  0.28
    BUY_SOUR_2  COST  68.03567341282759
    BUY_SOUR_2  CBAL_SOUR_2  1.0
    CINV_SOUR_2  COST  0.15
    CINV_SOUR_2  CBAL_SOUR_2  -1.0
    CINV_SOUR_2  CBAL_SOUR_3  1.0
    RUN_SOUR_2  CAP_2  1.0
    RUN_SOUR_2  CBAL_SOUR_2  -1.0
    RUN_SOUR_2  IBAL_D_2  0.38
    RUN_SOUR_2  IBAL_N_2  0.2
    RUN_SOUR_2  IBAL_R_2  0.4
    IINV_N_2  COST  0.15
    IINV_N_2  IBAL_N_2  -1.0
    IINV_N_2  IBAL_N_3  1.0
    IINV_D_2  COST  0.15
    IINV_D_2  IBAL_D_2  -1.0
    IINV_D_2  IBAL_D_3  1.0
    IINV_R_2  COST  0.15
    IINV_R_2  IBAL_R_2  -1.0
    IINV_R_2  IBAL_R_3  1.0
    N_RF_2  COST  4.0
    N_RF_2  IBAL_N_2  -1.0
    N_RF_2  RFBAL_2  0.85
    N_G_2  IBAL_N_2  -1.0
    N_G_2  OCT_2  -15.0
    N_G_2  PBAL_GAS_2  1.0
    RF_G_2  OCT_2  13.0
    RF_G_2  PBAL_GAS_2  1.0
    RF_G_2  RFBAL_2  -1.0
    BU_G_2  COST  85.0
    BU_G_2  OCT_2  8.0
    BU_G_2  PBAL_GAS_2  1.0
    D_D_2  IBAL_D_2  -1.0
    D_D_2  PBAL_DSL_2  1.0
    D_D_2  SULF_2  0.2
    HD_D_2  COST  92.0
    HD_D_2  PBAL_DSL_2  1.0
    HD_D_2  SULF_2  -0.25
    R_FO_2  IBAL_R_2  -1.0
    R_FO_2  PBAL_FO_2  1.0
    SELL_GAS_2  COST  -102.26130497763732
    SELL_GAS_2  PBAL_GAS_2  -1.0
    PINV_GAS_2  COST  0.15
    PINV_GAS_2  PBAL_GAS_2  -1.0
    PINV_GAS_2  PBAL_GAS_3  1.0
    SELL_DSL_2  COST  -97.57735928627265
    SELL_DSL_2  PBAL_DSL_2  -1.0
    PINV_DSL_2  COST  0.15
    PINV_DSL_2  PBAL_DSL_2  -1.0
    PINV_DSL_2  PBAL_DSL_3  1.0
    SELL_FO_2  COST  -60.49909500625748
    SELL_FO_2  PBAL_FO_2  -1.0
    PINV_FO_2  COST  0.15
    PINV_FO_2  PBAL_FO_2  -1.0
    PINV_FO_2  PBAL_FO_3  1.0
    BUY_SWEET_3  COST  75.86289360471304
    BUY_SWEET_3  CBAL_SWEET_3  1.0
    CINV_SWEET_3  COST  0.15
    CINV_SWEET_3  CBAL_SWEET_3  -1.0
    CINV_SWEET_3  CBAL_SWEET_4  1.0
    RUN_SWEET_3  CAP_3  1.0
    RUN_SWEET_3  CBAL_SWEET_3  -1.0
    RUN_SWEET_3  IBAL_D_3  0.42
    RUN_SWEET_3  IBAL_N_3  0.28
    RUN_SWEET_3  IBAL_R_3  0.28
    BUY_SOUR_3  COST  66.0980822080798
    BUY_SOUR_3  CBAL_SOUR_3  1.0
    CINV_SOUR_3  COST  0.15
    CINV_SOUR_3  CBAL_SOUR_3  -1.0
    CINV_SOUR_3  CBAL_SOUR_4  1.0
    RUN_SOUR_3  CAP_3  1.0
    RUN_SOUR_3  CBAL_SOUR_3  -1.0
    RUN_SOUR_3  IBAL_D_3  0.38
    RUN_SOUR_3  IBAL_N_3  0.2
    RUN_SOUR_3  IBAL_R_3  0.4
    IINV_N_3  COST  0.15
    IINV_N_3  IBAL_N_3  -1.0
    IINV_N_3  IBAL_N_4  1.0
    IINV_D_3  COST  0.15
    IINV_D_3  IBAL_D_3  -1.0
    IINV_D_3  IBAL_D_4  1.0
    IINV_R_3  COST  0.15
    IINV_R_3  IBAL_R_3  -1.0
    IINV_R_3  IBAL_R_4  1.0
    N_RF_3  COST  4.0
    N_RF_3  IBAL_N_3  -1.0
    N_RF_3  RFBAL_3  0.85
    N_G_3  IBAL_N_3  -1.0
    N_G_3  OCT_3  -15.0
    N_G_3  PBAL_GAS_3  1.0
    RF_G_3  OCT_3  13.0
    RF_G_3  PBAL_GAS_3  1.0
    RF_G_3  RFBAL_3  -1.0
    BU_G_3  COST  85.0
    BU_G_3  OCT_3  8.0
    BU_G_3  PBAL_GAS_3  1.0
    D_D_3  IBAL_D_3  -1.0
    D_D_3  PBAL_DSL_3  1.0
    D_D_3  SULF_3  0.2
    HD_D_3  COST  92.0
    HD_D_3  PBAL_DSL_3  1.0
    HD_D_3  SULF_3  -0.25
    R_FO_3  IBAL_R_3  -1.0
    R_FO_3  PBAL_FO_3  1.0
    SELL_GAS_3  COST  -104.05390559552079
    SELL_GAS_3  PBAL_GAS_3  -1.0
    PINV_GAS_3  COST  0.15
    PINV_GAS_3  PBAL_GAS_3  -1.0
    PINV_GAS_3  PBAL_GAS_4  1.0
    SELL_DSL_3  COST  -97.81059040934392
    SELL_DSL_3  PBAL_DSL_3  -1.0
    PINV_DSL_3  COST  0.15
    PINV_DSL_3  PBAL_DSL_3  -1.0
    PINV_DSL_3  PBAL_DSL_4  1.0
    SELL_FO_3  COST  -60.89048480170567
    SELL_FO_3  PBAL_FO_3  -1.0
    PINV_FO_3  COST  0.15
    PINV_FO_3  PBAL_FO_3  -1.0
    PINV_FO_3  PBAL_FO_4  1.0
    BUY_SWEET_4  COST  78.04084641614467
    BUY_SWEET_4  CBAL_SWEET_4  1.0
    CINV_SWEET_4  COST  0.15
    CINV_SWEET_4  CBAL_SWEET_4  -1.0
    CINV_SWEET_4  CBAL_SWEET_5  1.0
    RUN_SWEET_4  CAP_4  1.0
    RUN_SWEET_4  CBAL_SWEET_4  -1.0
    RUN_SWEET_4  IBAL_D_4  0.42
    RUN_SWEET_4  IBAL_N_4  0.28
    RUN_SWEET_4  IBAL_R_4  0.28
    BUY_SOUR_4  COST  69.99673469020273
    BUY_SOUR_4  CBAL_SOUR_4  1.0
    CINV_SOUR_4  COST  0.15
    CINV_SOUR_4  CBAL_SOUR_4  -1.0
    CINV_SOUR_4  CBAL_SOUR_5  1.0
    RUN_SOUR_4  CAP_4  1.0
    RUN_SOUR_4  CBAL_SOUR_4  -1.0
    RUN_SOUR_4  IBAL_D_4  0.38
    RUN_SOUR_4  IBAL_N_4  0.2
    RUN_SOUR_4  IBAL_R_4  0.4
    IINV_N_4  COST  0.15
    IINV_N_4  IBAL_N_4  -1.0
    IINV_N_4  IBAL_N_5  1.0
    IINV_D_4  COST  0.15
    IINV_D_4  IBAL_D_4  -1.0
    IINV_D_4  IBAL_D_5  1.0
    IINV_R_4  COST  0.15
    IINV_R_4  IBAL_R_4  -1.0
    IINV_R_4  IBAL_R_5  1.0
    N_RF_4  COST  4.0
    N_RF_4  IBAL_N_4  -1.0
    N_RF_4  RFBAL_4  0.85
    N_G_4  IBAL_N_4  -1.0
    N_G_4  OCT_4  -15.0
    N_G_4  PBAL_GAS_4  1.0
    RF_G_4  OCT_4  13.0
    RF_G_4  PBAL_GAS_4  1.0
    RF_G_4  RFBAL_4  -1.0
    BU_G_4  COST  85.0
    BU_G_4  OCT_4  8.0
    BU_G_4  PBAL_GAS_4  1.0
    D_D_4  IBAL_D_4  -1.0
    D_D_4  PBAL_DSL_4  1.0
    D_D_4  SULF_4  0.2
    HD_D_4  COST  92.0
    HD_D_4  PBAL_DSL_4  1.0
    HD_D_4  SULF_4  -0.25
    R_FO_4  IBAL_R_4  -1.0
    R_FO_4  PBAL_FO_4  1.0
    SELL_GAS_4  COST  -105.50402632693017
    SELL_GAS_4  PBAL_GAS_4  -1.0
    PINV_GAS_4  COST  0.15
    PINV_GAS_4  PBAL_GAS_4  -1.0
    PINV_GAS_4  PBAL_GAS_5  1.0
    SELL_DSL_4  COST  -96.01431575919361
    SELL_DSL_4  PBAL_DSL_4  -1.0
    PINV_DSL_4  COST  0.15
    PINV_DSL_4  PBAL_DSL_4  -1.0
    PINV_DSL_4  PBAL_DSL_5  1.0
    SELL_FO_4  COST  -62.74679872937861
    SELL_FO_4  PBAL_FO_4  -1.0
    PINV_FO_4  COST  0.15
    PINV_FO_4  PBAL_FO_4  -1.0
    PINV_FO_4  PBAL_FO_5  1.0
    BUY_SWEET_5  COST  81.03825649877993
    BUY_SWEET_5  CBAL_SWEET_5  1.0
    CINV_SWEET_5  COST  0.15
    CINV_SWEET_5  CBAL_SWEET_5  -1.0
    CINV_SWEET_5  CBAL_SWEET_6  1.0
    RUN_SWEET_5  CAP_5  1.0
    RUN_SWEET_5  CBAL_SWEET_5  -1.0
    RUN_SWEET_5  IBAL_D_5  0.42
    RUN_SWEET_5  IBAL_N_5  0.28
    RUN_SWEET_5  IBAL_R_5  0.28
    BUY_SOUR_5  COST  68.45658006786843
    BUY_SOUR_5  CBAL_SOUR_5  1.0
    CINV_SOUR_5  COST  0.15
    CINV_SOUR_5  CBAL_SOUR_5  -1.0
    CINV_SOUR_5  CBAL_SOUR_6  1.0
    RUN_SOUR_5  CAP_5  1.0
    RUN_SOUR_5  CBAL_SOUR_5  -1.0
    RUN_SOUR_5  IBAL_D_5  0.38
    RUN_SOUR_5  IBAL_N_5  0.2
    RUN_SOUR_5  IBAL_R_5  0.4
    IINV_N_5  COST  0.15
    IINV_N_5  IBAL_N_5  -1.0
    IINV_N_5  IBAL_N_6  1.0
    IINV_D_5  COST  0.15
    IINV_D_5  IBAL_D_5  -1.0
    IINV_D_5  IBAL_D_6  1.0
    IINV_R_5  COST  0.15
    IINV_R_5  IBAL_R_5  -1.0
    IINV_R_5  IBAL_R_6  1.0
    N_RF_5  COST  4.0
    N_RF_5  IBAL_N_5  -1.0
    N_RF_5  RFBAL_5  0.85
    N_G_5  IBAL_N_5  -1.0
    N_G_5  OCT_5  -15.0
    N_G_5  PBAL_GAS_5  1.0
    RF_G_5  OCT_5  13.0
    RF_G_5  PBAL_GAS_5  1.0
    RF_G_5  RFBAL_5  -1.0
    BU_G_5  COST  85.0
    BU_G_5  OCT_5  8.0
    BU_G_5  PBAL_GAS_5  1.0
    D_D_5  IBAL_D_5  -1.0
    D_D_5  PBAL_DSL_5  1.0
    D_D_5  SULF_5  0.2
    HD_D_5  COST  92.0
    HD_D_5  PBAL_DSL_5  1.0
    HD_D_5  SULF_5  -0.25
    R_FO_5  IBAL_R_5  -1.0
    R_FO_5  PBAL_FO_5  1.0
    SELL_GAS_5  COST  -104.54353956876548
    SELL_GAS_5  PBAL_GAS_5  -1.0
    PINV_GAS_5  COST  0.15
    PINV_GAS_5  PBAL_GAS_5  -1.0
    PINV_GAS_5  PBAL_GAS_6  1.0
    SELL_DSL_5  COST  -97.62807390659758
    SELL_DSL_5  PBAL_DSL_5  -1.0
    PINV_DSL_5  COST  0.15
    PINV_DSL_5  PBAL_DSL_5  -1.0
    PINV_DSL_5  PBAL_DSL_6  1.0
    SELL_FO_5  COST  -63.028800168189214
    SELL_FO_5  PBAL_FO_5  -1.0
    PINV_FO_5  COST  0.15
    PINV_FO_5  PBAL_FO_5  -1.0
    PINV_FO_5  PBAL_FO_6  1.0
    BUY_SWEET_6  COST  78.3448236491552
    BUY_SWEET_6  CBAL_SWEET_6  1.0
    CINV_SWEET_6  COST  0.15
    CINV_SWEET_6  CBAL_SWEET_6  -1.0
    CINV_SWEET_6  CBAL_SWEET_7  1.0
    RUN_SWEET_6  CAP_6  1.0
    RUN_SWEET_6  CBAL_SWEET_6  -1.0
    RUN_SWEET_6  IBAL_D_6  0.42
    RUN_SWEET_6  IBAL_N_6  0.28
    RUN_SWEET_6  IBAL_R_6  0.28
    BUY_SOUR_6  COST  67.09112833139014
    BUY_SOUR_6  CBAL_SOUR_6  1.0
    CINV_SOUR_6  COST  0.15
    CINV_SOUR_6  CBAL_SOUR_6  -1.0
    CINV_SOUR_6  CBAL_SOUR_7  1.0
    RUN_SOUR_6  CAP_6  1.0
    RUN_SOUR_6  CBAL_SOUR_6  -1.0
    RUN_SOUR_6  IBAL_D_6  0.38
    RUN_SOUR_6  IBAL_N_6  0.2
    RUN_SOUR_6  IBAL_R_6  0.4
    IINV_N_6  COST  0.15
    IINV_N_6  IBAL_N_6  -1.0
    IINV_N_6  IBAL_N_7  1.0
    IINV_D_6  COST  0.15
    IINV_D_6  IBAL_D_6  -1.0
    IINV_D_6  IBAL_D_7  1.0
    IINV_R_6  COST  0.15
    IINV_R_6  IBAL_R_6  -1.0
    IINV_R_6  IBAL_R_7  1.0
    N_RF_6  COST  4.0
    N_RF_6  IBAL_N_6  -1.0
    N_RF_6  RFBAL_6  0.85
    N_G_6  IBAL_N_6  -1.0
    N_G_6  OCT_6  -15.0
    N_G_6  PBAL_GAS_6  1.0
    RF_G_6  OCT_6  13.0
    RF_G_6  PBAL_GAS_6  1.0
    RF_G_6  RFBAL_6  -1.0
    BU_G_6  COST  85.0
    BU_G_6  OCT_6  8.0
    BU_G_6  PBAL_GAS_6  1.0
    D_D_6  IBAL_D_6  -1.0
    D_D_6  PBAL_DSL_6  1.0
    D_D_6  SULF_6  0.2
    HD_D_6  COST  92.0
    HD_D_6  PBAL_DSL_6  1.0
    HD_D_6  SULF_6  -0.25
    R_FO_6  IBAL_R_6  -1.0
    R_FO_6  PBAL_FO_6  1.0
    SELL_GAS_6  COST  -107.21035817522835
    SELL_GAS_6  PBAL_GAS_6  -1.0
    PINV_GAS_6  COST  0.15
    PINV_GAS_6  PBAL_GAS_6  -1.0
    PINV_GAS_6  PBAL_GAS_7  1.0
    SELL_DSL_6  COST  -97.44889725312194
    SELL_DSL_6  PBAL_DSL_6  -1.0
    PINV_DSL_6  COST  0.15
    PINV_DSL_6  PBAL_DSL_6  -1.0
    PINV_DSL_6  PBAL_DSL_7  1.0
    SELL_FO_6  COST  -60.24119280112884
    SELL_FO_6  PBAL_FO_6  -1.0
    PINV_FO_6  COST  0.15
    PINV_FO_6  PBAL_FO_6  -1.0
    PINV_FO_6  PBAL_FO_7  1.0
    BUY_SWEET_7  COST  81.85204568908593
    BUY_SWEET_7  CBAL_SWEET_7  1.0
    CINV_SWEET_7  COST  0.15
    CINV_SWEET_7  CBAL_SWEET_7  -1.0
    CINV_SWEET_7  CBAL_SWEET_8  1.0
    RUN_SWEET_7  CAP_7  1.0
    RUN_SWEET_7  CBAL_SWEET_7  -1.0
    RUN_SWEET_7  IBAL_D_7  0.42
    RUN_SWEET_7  IBAL_N_7  0.28
    RUN_SWEET_7  IBAL_R_7  0.28
    BUY_SOUR_7  COST  70.04175678770159
    BUY_SOUR_7  CBAL_SOUR_7  1.0
    CINV_SOUR_7  COST  0.15
    CINV_SOUR_7  CBAL_SOUR_7  -1.0
    CINV_SOUR_7  CBAL_SOUR_8  1.0
    RUN_SOUR_7  CAP_7  1.0
    RUN_SOUR_7  CBAL_SOUR_7  -1.0
    RUN_SOUR_7  IBAL_D_7  0.38
    RUN_SOUR_7  IBAL_N_7  0.2
    RUN_SOUR_7  IBAL_R_7  0.4
    IINV_N_7  COST  0.15
    IINV_N_7  IBAL_N_7  -1.0
    IINV_N_7  IBAL_N_8  1.0
    IINV_D_7  COST  0.15
    IINV_D_7  IBAL_D_7  -1.0
    IINV_D_7  IBAL_D_8  1.0
    IINV_R_7  COST  0.15
    IINV_R_7  IBAL_R_7  -1.0
    IINV_R_7  IBAL_R_8  1.0
    N_RF_7  COST  4.0
    N_RF_7  IBAL_N_7  -1.0
    N_RF_7  RFBAL_7  0.85
    N_G_7  IBAL_N_7  -1.0
    N_G_7  OCT_7  -15.0
    N_G_7  PBAL_GAS_7  1.0
    RF_G_7  OCT_7  13.0
    RF_G_7  PBAL_GAS_7  1.0
    RF_G_7  RFBAL_7  -1.0
    BU_G_7  COST  85.0
    BU_G_7  OCT_7  8.0
    BU_G_7  PBAL_GAS_7  1.0
    D_D_7  IBAL_D_7  -1.0
    D_D_7  PBAL_DSL_7  1.0
    D_D_7  SULF_7  0.2
    HD_D_7  COST  92.0
    HD_D_7  PBAL_DSL_7  1.0
    HD_D_7  SULF_7  -0.25
    R_FO_7  IBAL_R_7  -1.0
    R_FO_7  PBAL_FO_7  1.0
    SELL_GAS_7  COST  -105.64144786485444
    SELL_GAS_7  PBAL_GAS_7  -1.0
    PINV_GAS_7  COST  0.15
    PINV_GAS_7  PBAL_GAS_7  -1.0
    PINV_GAS_7  PBAL_GAS_8  1.0
    SELL_DSL_7  COST  -99.55796397945589
    SELL_DSL_7  PBAL_DSL_7  -1.0
    PINV_DSL_7  COST  0.15
    PINV_DSL_7  PBAL_DSL_7  -1.0
    PINV_DSL_7  PBAL_DSL_8  1.0
    SELL_FO_7  COST  -60.76951866129314
    SELL_FO_7  PBAL_FO_7  -1.0
    PINV_FO_7  COST  0.15
    PINV_FO_7  PBAL_FO_7  -1.0
    PINV_FO_7  PBAL_FO_8  1.0
    BUY_SWEET_8  COST  76.88166939275752
    BUY_SWEET_8  CBAL_SWEET_8  1.0
    CINV_SWEET_8  COST  0.15
    CINV_SWEET_8  CBAL_SWEET_8  -1.0
    CINV_SWEET_8  CBAL_SWEET_9  1.0
    RUN_SWEET_8  CAP_8  1.0
    RUN_SWEET_8  CBAL_SWEET_8  -1.0
    RUN_SWEET_8  IBAL_D_8  0.42
    RUN_SWEET_8  IBAL_N_8  0.28
    RUN_SWEET_8  IBAL_R_8  0.28
    BUY_SOUR_8  COST  71.28544342842903
    BUY_SOUR_8  CBAL_SOUR_8  1.0
    CINV_SOUR_8  COST  0.15
    CINV_SOUR_8  CBAL_SOUR_8  -1.0
    CINV_SOUR_8  CBAL_SOUR_9  1.0
    RUN_SOUR_8  CAP_8  1.0
    RUN_SOUR_8  CBAL_SOUR_8  -1.0
    RUN_SOUR_8  IBAL_D_8  0.38
    RUN_SOUR_8  IBAL_N_8  0.2
    RUN_SOUR_8  IBAL_R_8  0.4
    IINV_N_8  COST  0.15
    IINV_N_8  IBAL_N_8  -1.0
    IINV_N_8  IBAL_N_9  1.0
    IINV_D_8  COST  0.15
    IINV_D_8  IBAL_D_8  -1.0
    IINV_D_8  IBAL_D_9  1.0
    IINV_R_8  COST  0.15
    IINV_R_8  IBAL_R_8  -1.0
    IINV_R_8  IBAL_R_9  1.0
    N_RF_8  COST  4.0
    N_RF_8  IBAL_N_8  -1.0
    N_RF_8  RFBAL_8  0.85
    N_G_8  IBAL_N_8  -1.0
    N_G_8  OCT_8  -15.0
    N_G_8  PBAL_GAS_8  1.0
    RF_G_8  OCT_8  13.0
    RF_G_8  PBAL_GAS_8  1.0
    RF_G_8  RFBAL_8  -1.0
    BU_G_8  COST  85.0
    BU_G_8  OCT_8  8.0
    BU_G_8  PBAL_GAS_8  1.0
    D_D_8  IBAL_D_8  -1.0
    D_D_8  PBAL_DSL_8  1.0
    D_D_8  SULF_8  0.2
    HD_D_8  COST  92.0
    HD_D_8  PBAL_DSL_8  1.0
    HD_D_8  SULF_8  -0.25
    R_FO_8  IBAL_R_8  -1.0
    R_FO_8  PBAL_FO_8  1.0
    SELL_GAS_8  COST  -104.63053599193553
    SELL_GAS_8  PBAL_GAS_8  -1.0
    PINV_GAS_8  COST  0.15
    PINV_GAS_8  PBAL_GAS_8  -1.0
    PINV_GAS_8  PBAL_GAS_9  1.0
    SELL_DSL_8  COST  -98.02352258354941
    SELL_DSL_8  PBAL_DSL_8  -1.0
    PINV_DSL_8  COST  0.15
    PINV_DSL_8  PBAL_DSL_8  -1.0
    PINV_DSL_8  PBAL_DSL_9  1.0
    SELL_FO_8  COST  -61.343573701229076
    SELL_FO_8  PBAL_FO_8  -1.0
    PINV_FO_8  COST  0.15
    PINV_FO_8  PBAL_FO_8  -1.0
    PINV_FO_8  PBAL_FO_9  1.0
    BUY_SWEET_9  COST  80.5897318171491
    BUY_SWEET_9  CBAL_SWEET_9  1.0
    CINV_SWEET_9  COST  0.15
    CINV_SWEET_9  CBAL_SWEET_10  1.0
    CINV_SWEET_9  CBAL_SWEET_9  -1.0
    RUN_SWEET_9  CAP_9  1.0
    RUN_SWEET_9  CBAL_SWEET_9  -1.0
    RUN_SWEET_9  IBAL_D_9  0.42
    RUN_SWEET_9  IBAL_N_9  0.28
    RUN_SWEET_9  IBAL_R_9  0.28
    BUY_SOUR_9  COST  67.17863185520314
    BUY_SOUR_9  CBAL_SOUR_9  1.0
    CINV_SOUR_9  COST  0.15
    CINV_SOUR_9  CBAL_SOUR_10  1.0
    CINV_SOUR_9  CBAL_SOUR_9  -1.0
    RUN_SOUR_9  CAP_9  1.0
    RUN_SOUR_9  CBAL_SOUR_9  -1.0
    RUN_SOUR_9  IBAL_D_9  0.38
    RUN_SOUR_9  IBAL_N_9  0.2
    RUN_SOUR_9  IBAL_R_9  0.4
    IINV_N_9  COST  0.15
    IINV_N_9  IBAL_N_10  1.0
    IINV_N_9  IBAL_N_9  -1.0
    IINV_D_9  COST  0.15
    IINV_D_9  IBAL_D_10  1.0
    IINV_D_9  IBAL_D_9  -1.0
    IINV_R_9  COST  0.15
    IINV_R_9  IBAL_R_10  1.0
    IINV_R_9  IBAL_R_9  -1.0
    N_RF_9  COST  4.0
    N_RF_9  IBAL_N_9  -1.0
    N_RF_9  RFBAL_9  0.85
    N_G_9  IBAL_N_9  -1.0
    N_G_9  OCT_9  -15.0
    N_G_9  PBAL_GAS_9  1.0
    RF_G_9  OCT_9  13.0
    RF_G_9  PBAL_GAS_9  1.0
    RF_G_9  RFBAL_9  -1.0
    BU_G_9  COST  85.0
    BU_G_9  OCT_9  8.0
    BU_G_9  PBAL_GAS_9  1.0
    D_D_9  IBAL_D_9  -1.0
    D_D_9  PBAL_DSL_9  1.0
    D_D_9  SULF_9  0.2
    HD_D_9  COST  92.0
    HD_D_9  PBAL_DSL_9  1.0
    HD_D_9  SULF_9  -0.25
    R_FO_9  IBAL_R_9  -1.0
    R_FO_9  PBAL_FO_9  1.0
    SELL_GAS_9  COST  -101.93200922117566
    SELL_GAS_9  PBAL_GAS_9  -1.0
    PINV_GAS_9  COST  0.15
    PINV_GAS_9  PBAL_GAS_10  1.0
    PINV_GAS_9  PBAL_GAS_9  -1.0
    SELL_DSL_9  COST  -99.74874104151165
    SELL_DSL_9  PBAL_DSL_9  -1.0
    PINV_DSL_9  COST  0.15
    PINV_DSL_9  PBAL_DSL_10  1.0
    PINV_DSL_9  PBAL_DSL_9  -1.0
    SELL_FO_9  COST  -61.14212632705824
    SELL_FO_9  PBAL_FO_9  -1.0
    PINV_FO_9  COST  0.15
    PINV_FO_9  PBAL_FO_10  1.0
    PINV_FO_9  PBAL_FO_9  -1.0
    BUY_SWEET_10  COST  79.26517575029294
    BUY_SWEET_10  CBAL_SWEET_10  1.0
    CINV_SWEET_10  COST  0.15
    CINV_SWEET_10  CBAL_SWEET_10  -1.0
    CINV_SWEET_10  CBAL_SWEET_11  1.0
    RUN_SWEET_10  CAP_10  1.0
    RUN_SWEET_10  CBAL_SWEET_10  -1.0
    RUN_SWEET_10  IBAL_D_10  0.42
    RUN_SWEET_10  IBAL_N_10  0.28
    RUN_SWEET_10  IBAL_R_10  0.28
    BUY_SOUR_10  COST  67.98010183139469
    BUY_SOUR_10  CBAL_SOUR_10  1.0
    CINV_SOUR_10  COST  0.15
    CINV_SOUR_10  CBAL_SOUR_10  -1.0
    CINV_SOUR_10  CBAL_SOUR_11  1.0
    RUN_SOUR_10  CAP_10  1.0
    RUN_SOUR_10  CBAL_SOUR_10  -1.0
    RUN_SOUR_10  IBAL_D_10  0.38
    RUN_SOUR_10  IBAL_N_10  0.2
    RUN_SOUR_10  IBAL_R_10  0.4
    IINV_N_10  COST  0.15
    IINV_N_10  IBAL_N_10  -1.0
    IINV_N_10  IBAL_N_11  1.0
    IINV_D_10  COST  0.15
    IINV_D_10  IBAL_D_10  -1.0
    IINV_D_10  IBAL_D_11  1.0
    IINV_R_10  COST  0.15
    IINV_R_10  IBAL_R_10  -1.0
    IINV_R_10  IBAL_R_11  1.0
    N_RF_10  COST  4.0
    N_RF_10  IBAL_N_10  -1.0
    N_RF_10  RFBAL_10  0.85
    N_G_10  IBAL_N_10  -1.0
    N_G_10  OCT_10  -15.0
    N_G_10  PBAL_GAS_10  1.0
    RF_G_10  OCT_10  13.0
    RF_G_10  PBAL_GAS_10  1.0
    RF_G_10  RFBAL_10  -1.0
    BU_G_10  COST  85.0
    BU_G_10  OCT_10  8.0
    BU_G_10  PBAL_GAS_10  1.0
    D_D_10  IBAL_D_10  -1.0
    D_D_10  PBAL_DSL_10  1.0
    D_D_10  SULF_10  0.2
    HD_D_10  COST  92.0
    HD_D_10  PBAL_DSL_10  1.0
    HD_D_10  SULF_10  -0.25
    R_FO_10  IBAL_R_10  -1.0
    R_FO_10  PBAL_FO_10  1.0
    SELL_GAS_10  COST  -104.46390677546053
    SELL_GAS_10  PBAL_GAS_10  -1.0
    PINV_GAS_10  COST  0.15
    PINV_GAS_10  PBAL_GAS_10  -1.0
    PINV_GAS_10  PBAL_GAS_11  1.0
    SELL_DSL_10  COST  -97.12312677965363
    SELL_DSL_10  PBAL_DSL_10  -1.0
    PINV_DSL_10  COST  0.15
    PINV_DSL_10  PBAL_DSL_10  -1.0
    PINV_DSL_10  PBAL_DSL_11  1.0
    SELL_FO_10  COST  -62.18963780780684
    SELL_FO_10  PBAL_FO_10  -1.0
    PINV_FO_10  COST  0.15
    PINV_FO_10  PBAL_FO_10  -1.0
    PINV_FO_10  PBAL_FO_11  1.0
    BUY_SWEET_11  COST  76.54341652175177
    BUY_SWEET_11  CBAL_SWEET_11  1.0
    CINV_SWEET_11  COST  0.15
    CINV_SWEET_11  CBAL_SWEET_11  -1.0
    RUN_SWEET_11  CAP_11  1.0
    RUN_SWEET_11  CBAL_SWEET_11  -1.0
    RUN_SWEET_11  IBAL_D_11  0.42
    RUN_SWEET_11  IBAL_N_11  0.28
    RUN_SWEET_11  IBAL_R_11  0.28
    BUY_SOUR_11  COST  69.62111835862211
    BUY_SOUR_11  CBAL_SOUR_11  1.0
    CINV_SOUR_11  COST  0.15
    CINV_SOUR_11  CBAL_SOUR_11  -1.0
    RUN_SOUR_11  CAP_11  1.0
    RUN_SOUR_11  CBAL_SOUR_11  -1.0
    RUN_SOUR_11  IBAL_D_11  0.38
    RUN_SOUR_11  IBAL_N_11  0.2
    RUN_SOUR_11  IBAL_R_11  0.4
    IINV_N_11  COST  0.15
    IINV_N_11  IBAL_N_11  -1.0
    IINV_D_11  COST  0.15
    IINV_D_11  IBAL_D_11  -1.0
    IINV_R_11  COST  0.15
    IINV_R_11  IBAL_R_11  -1.0
    N_RF_11  COST  4.0
    N_RF_11  IBAL_N_11  -1.0
    N_RF_11  RFBAL_11  0.85
    N_G_11  IBAL_N_11  -1.0
    N_G_11  OCT_11  -15.0
    N_G_11  PBAL_GAS_11  1.0
    RF_G_11  OCT_11  13.0
    RF_G_11  PBAL_GAS_11  1.0
    RF_G_11  RFBAL_11  -1.0
    BU_G_11  COST  85.0
    BU_G_11  OCT_11  8.0
    BU_G_11  PBAL_GAS_11  1.0
    D_D_11  IBAL_D_11  -1.0
    D_D_11  PBAL_DSL_11  1.0
    D_D_11  SULF_11  0.2
    HD_D_11  COST  92.0
    HD_D_11  PBAL_DSL_11  1.0
    HD_D_11  SULF_11  -0.25
    R_FO_11  IBAL_R_11  -1.0
    R_FO_11  PBAL_FO_11  1.0
    SELL_GAS_11  COST  -105.99232804225197
    SELL_GAS_11  PBAL_GAS_11  -1.0
    PINV_GAS_11  COST  0.15
    PINV_GAS_11  PBAL_GAS_11  -1.0
    SELL_DSL_11  COST  -96.32205818883172
    SELL_DSL_11  PBAL_DSL_11  -1.0
    PINV_DSL_11  COST  0.15
    PINV_DSL_11  PBAL_DSL_11  -1.0
    SELL_FO_11  COST  -61.690322797526655
    SELL_FO_11  PBAL_FO_11  -1.0
    PINV_FO_11  COST  0.15
    PINV_FO_11  PBAL_FO_11  -1.0
RHS
    RHS  CBAL_SWEET_0  -2000.0
    RHS  CBAL_SOUR_0  -2000.0
    RHS  CAP_0  30000.0
    RHS  CAP_1  30000.0
    RHS  CAP_2  30000.0
    RHS  CAP_3  30000.0
    RHS  CAP_4  30000.0
    RHS  CAP_5  30000.0
    RHS  CAP_6  30000.0
    RHS  CAP_7  30000.0
    RHS  CAP_8  30000.0
    RHS  CAP_9  30000.0
    RHS  CAP_10  30000.0
    RHS  CAP_11  30000.0
BOUNDS
 UP BND  BUY_SWEET_0  12008.890173677142
 UP BND  CINV_SWEET_0  40000.0
 FX BND  BUY_SOUR_0  0.0
 UP BND  CINV_SOUR_0  40000.0
 UP BND  IINV_N_0  15000.0
 UP BND  IINV_D_0  15000.0
 UP BND  IINV_R_0  15000.0
 UP BND  N_RF_0  5000.0
 UP BND  BU_G_0  3000.0
 UP BND  HD_D_0  4000.0
 UP BND  SELL_GAS_0  9595.18064129337
 UP BND  PINV_GAS_0  12000.0
 UP BND  SELL_DSL_0  11727.443006025229
 UP BND  PINV_DSL_0  12000.0
 UP BND  SELL_FO_0  5863.721503012614
 UP BND  PINV_FO_0  12000.0
 UP BND  BUY_SWEET_1  13020.674555432039
 UP BND  CINV_SWEET_1  40000.0
 FX BND  BUY_SOUR_1  0.0
 UP BND  CINV_SOUR_1  40000.0
 UP BND  IINV_N_1  15000.0
 UP BND  IINV_D_1  15000.0
 UP BND  IINV_R_1  15000.0
 UP BND  N_RF_1  5000.0
 UP BND  BU_G_1  3000.0
 UP BND  HD_D_1  4000.0
 UP BND  SELL_GAS_1  10320.397673495316
 UP BND  PINV_GAS_1  12000.0
 UP BND  SELL_DSL_1  12613.819378716498
 UP BND  PINV_DSL_1  12000.0
 UP BND  SELL_FO_1  6306.909689358249
 UP BND  PINV_FO_1  12000.0
 UP BND  BUY_SWEET_2  13975.794717004095
 UP BND  CINV_SWEET_2  40000.0
 FX BND  BUY_SOUR_2  0.0
 UP BND  CINV_SOUR_2  40000.0
 UP BND  IINV_N_2  15000.0
 UP BND  IINV_D_2  15000.0
 UP BND  IINV_R_2  15000.0
 UP BND  N_RF_2  5000.0
 UP BND  BU_G_2  3000.0
 UP BND  HD_D_2  4000.0
 UP BND  SELL_GAS_2  9205.633967109885
 UP BND  PINV_GAS_2  12000.0
 UP BND  SELL_DSL_2  11251.330404245415
 UP BND  PINV_DSL_2  12000.0
 UP BND  SELL_FO_2  5625.665202122707
 UP BND  PINV_FO_2  12000.0
 UP BND  BUY_SWEET_3  14406.330297710101
 UP BND  CINV_SWEET_3  40000.0
 FX BND  BUY_SOUR_3  0.0
 UP BND  CINV_SOUR_3  40000.0
 UP BND  IINV_N_3  15000.0
 UP BND  IINV_D_3  15000.0
 UP BND  IINV_R_3  15000.0
 UP BND  N_RF_3  5000.0
 UP BND  BU_G_3  3000.0
 UP BND  HD_D_3  4000.0
 UP BND  SELL_GAS_3  8820.762629670266
 UP BND  PINV_GAS_3  12000.0
 UP BND  SELL_DSL_3  10780.932102930326
 UP BND  PINV_DSL_3  12000.0
 UP BND  SELL_FO_3  5390.466051465163
 UP BND  PINV_FO_3  12000.0
 UP BND  BUY_SWEET_4  13928.893309317356
 UP BND  CINV_SWEET_4  40000.0
 FX BND  BUY_SOUR_4  0.0
 UP BND  CINV_SOUR_4  40000.0
 UP BND  IINV_N_4  15000.0
 UP BND  IINV_D_4  15000.0
 UP BND  IINV_R_4  15000.0
 UP BND  N_RF_4  5000.0
 UP BND  BU_G_4  3000.0
 UP BND  HD_D_4  4000.0
 UP BND  SELL_GAS_4  7664.5664685330285
 UP BND  PINV_GAS_4  12000.0
 UP BND  SELL_DSL_4  9367.803461540369
 UP BND  PINV_DSL_4  12000.0
 UP BND  SELL_FO_4  4683.901730770184
 UP BND  PINV_FO_4  12000.0
 UP BND  BUY_SWEET_5  14000.03511691491
 UP BND  CINV_SWEET_5  40000.0
 FX BND  BUY_SOUR_5  0.0
 UP BND  CINV_SOUR_5  40000.0
 UP BND  IINV_N_5  15000.0
 UP BND  IINV_D_5  15000.0
 UP BND  IINV_R_5  15000.0
 UP BND  N_RF_5  5000.0
 UP BND  BU_G_5  3000.0
 UP BND  HD_D_5  4000.0
 UP BND  SELL_GAS_5  8949.896779395642
 UP BND  PINV_GAS_5  12000.0
 UP BND  SELL_DSL_5  10938.762730372451
 UP BND  PINV_DSL_5  12000.0
 UP BND  SELL_FO_5  5469.381365186226
 UP BND  PINV_FO_5  12000.0
 UP BND  BUY_SWEET_6  15905.71735316844
 UP BND  CINV_SWEET_6  40000.0
 FX BND  BUY_SOUR_6  0.0
 UP BND  CINV_SOUR_6  40000.0
 UP BND  IINV_N_6  15000.0
 UP BND  IINV_D_6  15000.0
 UP BND  IINV_R_6  15000.0
 UP BND  N_RF_6  5000.0
 UP BND  BU_G_6  3000.0
 UP BND  HD_D_6  4000.0
 UP BND  SELL_GAS_6  9718.111491099638
 UP BND  PINV_GAS_6  12000.0
 UP BND  SELL_DSL_6  11877.691822455114
 UP BND  PINV_DSL_6  12000.0
 UP BND  SELL_FO_6  5938.845911227557
 UP BND  PINV_FO_6  12000.0
 UP BND  BUY_SWEET_7  12182.00635709521
 UP BND  CINV_SWEET_7  40000.0
 FX BND  BUY_SOUR_7  0.0
 UP BND  CINV_SOUR_7  40000.0
 UP BND  IINV_N_7  15000.0
 UP BND  IINV_D_7  15000.0
 UP BND  IINV_R_7  15000.0
 UP BND  N_RF_7  5000.0
 UP BND  BU_G_7  3000.0
 UP BND  HD_D_7  4000.0
 UP BND  SELL_GAS_7  10302.961330677888
 UP BND  PINV_GAS_7  12000.0
 UP BND  SELL_DSL_7  12592.508293050752
 UP BND  PINV_DSL_7  12000.0
 UP BND  SELL_FO_7  6296.254146525376
 UP BND  PINV_FO_7  12000.0
 UP BND  BUY_SWEET_8  14101.08087626153
 UP BND  CINV_SWEET_8  40000.0
 FX BND  BUY_SOUR_8  0.0
 UP BND  CINV_SOUR_8  40000.0
 UP BND  IINV_N_8  15000.0
 UP BND  IINV_D_8  15000.0
 UP BND  IINV_R_8  15000.0
 UP BND  N_RF_8  5000.0
 UP BND  BU_G_8  3000.0
 UP BND  HD_D_8  4000.0
 UP BND  SELL_GAS_8  9910.631910870718
 UP BND  PINV_GAS_8  12000.0
 UP BND  SELL_DSL_8  12112.994557730877
 UP BND  PINV_DSL_8  12000.0
 UP BND  SELL_FO_8  6056.497278865439
 UP BND  PINV_FO_8  12000.0
 UP BND  BUY_SWEET_9  13524.937518347202
 UP BND  CINV_SWEET_9  40000.0
 FX BND  BUY_SOUR_9  0.0
 UP BND  CINV_SOUR_9  40000.0
 UP BND  IINV_N_9  15000.0
 UP BND  IINV_D_9  15000.0
 UP BND  IINV_R_9  15000.0
 UP BND  N_RF_9  5000.0
 UP BND  BU_G_9  3000.0
 UP BND  HD_D_9  4000.0
 UP BND  SELL_GAS_9  8637.305809748337
 UP BND  PINV_GAS_9  12000.0
 UP BND  SELL_DSL_9  10556.707100803522
 UP BND  PINV_DSL_9  12000.0
 UP BND  SELL_FO_9  5278.353550401761
 UP BND  PINV_FO_9  12000.0
 UP BND  BUY_SWEET_10  12007.31395576871
 UP BND  CINV_SWEET_10  40000.0
 FX BND  BUY_SOUR_10  0.0
 UP BND  CINV_SOUR_10  40000.0
 UP BND  IINV_N_10  15000.0
 UP BND  IINV_D_10  15000.0
 UP BND  IINV_R_10  15000.0
 UP BND  N_RF_10  5000.0
 UP BND  BU_G_10  3000.0
 UP BND  HD_D_10  4000.0
 UP BND  SELL_GAS_10  7655.057570473832
 UP BND  PINV_GAS_10  12000.0
 UP BND  SELL_DSL_10  9356.181475023572
 UP BND  PINV_DSL_10  12000.0
 UP BND  SELL_FO_10  4678.090737511786
 UP BND  PINV_FO_10  12000.0
 UP BND  BUY_SWEET_11  12373.6601039999
 LO BND  CINV_SWEET_11  2000.0
 UP BND  CINV_SWEET_11  40000.0
 FX BND  BUY_SOUR_11  0.0
 LO BND  CINV_SOUR_11  2000.0
 UP BND  CINV_SOUR_11  40000.0
 UP BND  IINV_N_11  15000.0
 UP BND  IINV_D_11  15000.0
 UP BND  IINV_R_11  15000.0
 UP BND  N_RF_11  5000.0
 UP BND  BU_G_11  3000.0
 UP BND  HD_D_11  4000.0
 UP BND  SELL_GAS_11  8961.708526277158
 UP BND  PINV_GAS_11  12000.0
 UP BND  SELL_DSL_11  10953.199309894304
 UP BND  PINV_DSL_11  12000.0
 UP BND  SELL_FO_11  5476.599654947152
 UP BND  PINV_FO_11  12000.0
ENDATA
