NAME          ADV
ROWS
 N  OBJ
 G  R0
 L  R1
 G  R2
 E  R3
 E  R4
 E  R5
 G  R6
 G  R7
 L  R8
 L  R9
 G  R10
 G  R11
 G  R12
 E  R13
 E  R14
 L  R15
 E  R16
 L  R17
 E  R18
 L  R19
 E  R20
 L  R21
 G  R22
COLUMNS
    C0  R14  4.0  R22  -5.0
    C0  R16  7.0  R19  -4.0
    C0  R16  -5.0  R17  3.0
    C0  R11  -11.0  R5  1.0
    C0  R21  1.0  OBJ  -12.0
    C0  R18  -1.0  R17  -8.0
    C0  R5  -2.0  R10  5.0
    C0  R11  8.0  R12  -5.0
    C1  OBJ  14.0  R3  -3.0
    C1  R20  -9.0  R8  3.0
    C1  R13  3.0  R8  -5.0
    C1  R1  3.0  R20  5.0
    C1  R4  -5.0
    C2  R1  -5.0  R8  4.0
    C2  R19  -5.0  R9  -5.0
    C2  R16  5.0  R11  -1.0
    C2  R13  2.0  R22  4.0
    C2  R15  -4.0  OBJ  13.0
    C3  R7  -12.0  R3  -1.0
    C3  R13  -7.0  R2  -1.0
    C3  R1  -2.0  R12  -1.0
    C3  OBJ  2.0  R15  3.0
    C3  R7  7.0  R6  -2.0
    C3  R5  -6.0  R5  2.0
    C3  R2  -2.0  R16  5.0
    C3  R8  -1.0  R13  2.0
    C4  R3  4.0  R22  1.0
    C4  R1  -2.0  R9  4.0
    C4  R14  4.0  R7  0.0
    C4  R4  -2.0  R18  -3.0
    C4  R7  -4.0  OBJ  2.0
    C4  R17  3.0  R3  -3.0
    C4  R12  -4.0  R20  -1.0
    C5  R4  -4.0  R19  -9.0
    C5  R21  -2.0  R5  4.0
    C5  R21  5.0  R3  -11.0
    C5  R3  8.0  R17  -2.0
    C5  R1  -1.0  R16  -5.0
    C5  R19  5.0  OBJ  20.0
    C5  R14  3.0  R17  4.0
    C6  R16  -5.0  R15  6.0
    C6  R13  4.0  R14  -7.0
    C6  R15  -7.0  R16  9.0
    C6  R19  -3.0  OBJ  2.0
    C6  R17  5.0  R6  1.0
    C6  R10  1.0  R14  3.0
    C7  OBJ  -13.0  R18  10.0
    C7  R18  -5.0  R4  3.0
    C7  R17  5.0  R5  1.0
    C7  R12  -2.0  R13  1.0
    C7  R4  2.0  R15  5.0
    C7  R17  -1.0  R13  0.0
    C7  R10  2.0
    C8  R11  -6.0  R0  2.0
    C8  R3  -2.0  R18  -2.0
    C8  R18  7.0  R16  2.0
    C8  R14  -3.0  R11  9.0
    C8  R13  4.0  OBJ  24.0
    C8  R21  5.0
    C9  R11  2.0  R15  -9.0
    C9  R22  -7.0  OBJ  -6.0
    C9  R19  4.0  R5  2.0
    C9  R15  6.0  R0  -5.0
    C9  R14  -4.0  R1  -4.0
    C9  R22  6.0  R20  1.0
    C9  R19  -5.0
    C10  R18  -1.0  R7  4.0
    C10  R20  2.0  R5  -10.0
    C10  R16  -9.0  OBJ  10.0
    C10  R16  6.0  R12  2.0
    C10  R15  -1.0  R2  3.0
    C10  R9  -3.0  R14  3.0
    C10  R5  7.0
    C11  R20  2.0  R17  -5.0
    C11  R20  2.0  R14  -1.0
    C11  R10  4.0  R11  4.0
    C11  R22  1.0  OBJ  6.0
    C11  R9  -3.0  R6  1.0
    C11  R2  5.0  R16  5.0
    C11  R12  -4.0
    C12  R3  2.0  OBJ  -12.0
    C12  R1  1.0  R14  7.0
    C12  R18  1.0  R11  2.0
    C12  R22  2.0  R14  -11.0
    C12  R22  -7.0  R0  2.0
    C12  R16  -5.0  R15  3.0
    C13  R3  -5.0  R20  1.0
    C13  OBJ  -11.0  R8  1.0
    C13  R7  -8.0  R2  -5.0
    C13  R8  4.0  R11  3.0
    C13  R11  -4.0  R19  -1.0
    C13  R7  6.0
    C14  R20  2.0  R10  5.0
    C14  R14  -1.0  R3  1.0
    C14  OBJ  5.0  R21  -2.0
    C14  R16  -1.0  R10  -4.0
    C14  R2  8.0  R15  -1.0
    C14  R22  1.0  R2  -3.0
    C14  R0  -1.0  R6  3.0
    C14  R4  0.0  R4  -4.0
    C15  R15  -1.0  OBJ  18.0
    C15  R4  7.0  R1  -6.0
    C15  R9  -6.0  R4  -10.0
    C15  R9  1.0  R1  3.0
    C15  R8  -2.0  R19  -2.0
    C15  R6  4.0  R11  -5.0
    C15  R12  2.0  R10  -4.0
    C16  R13  4.0  R10  3.0
    C16  R12  1.0  R15  2.0
    C16  OBJ  -35.0  R4  -6.0
    C16  R21  -4.0  R2  4.0
    C16  R14  -3.0  R4  9.0
    C17  R10  -7.0  R2  8.0
    C17  R11  1.0  R16  -5.0
    C17  R6  -1.0  R19  -4.0
    C17  R10  12.0  R9  5.0
    C17  R14  -2.0  R2  -3.0
    C17  R9  -3.0  OBJ  -26.0
    C18  R16  -2.0  R1  -3.0
    C18  R21  8.0  R1  2.0
    C18  R6  5.0  R21  -5.0
    C18  R0  -1.0  R3  -5.0
    C18  R17  5.0  R14  5.0
    C18  OBJ  13.0  R7  7.0
    C18  R7  -5.0  R12  2.0
    C18  R15  0.0  R17  0.0
    C18  R10  5.0  R15  -2.0
    C19  R5  -5.0  R0  4.0
    C19  OBJ  -16.0  R18  -1.0
    C19  R14  -3.0  R8  1.0
    C19  R6  -4.0  R8  -6.0
    C19  R1  -7.0  R2  -1.0
    C19  R22  1.0  R18  3.0
    C19  R4  4.0  R1  8.0
    C19  R7  -3.0  R20  -3.0
    C20  R19  -2.0  R12  6.0
    C20  R18  9.0  R12  -9.0
    C20  R7  3.0  R8  -4.0
    C20  R14  -3.0  R14  8.0
    C20  R10  -1.0  OBJ  37.0
    C20  R0  3.0  R18  -5.0
    C20  R22  -2.0  R19  4.0
    C20  R15  -4.0
    C21  R8  4.0  R7  3.0
    C21  R15  5.0  R2  8.0
    C21  R18  1.0  R2  -6.0
    C21  R18  4.0  R12  -1.0
    C21  R5  5.0  R12  2.0
    C21  R1  -5.0  R3  2.0
    C21  OBJ  19.0  R15  -4.0
    C21  R1  4.0
    C22  R19  5.0  R22  2.0
    C22  R9  -2.0  R8  2.0
    C22  R10  -1.0  R3  -3.0
    C22  R20  4.0  R14  -4.0
    C22  R17  -3.0  R21  0.0
    C22  R21  -3.0  R15  2.0
    C22  R19  -4.0  OBJ  -19.0
    C22  R5  -4.0
    C23  R9  -1.0  R10  -8.0
    C23  R2  -4.0  R5  -2.0
    C23  R4  1.0  R13  -1.0
    C23  R3  -7.0  R13  5.0
    C23  R3  10.0  OBJ  -4.0
    C23  R7  -4.0  R10  3.0
    C24  R8  5.0  R10  -2.0
    C24  R16  -4.0  R21  2.0
    C24  R22  4.0  R19  -2.0
    C24  R2  3.0  OBJ  -2.0
    C24  R21  -1.0  R1  -2.0
    C24  R7  10.0  R15  3.0
    C24  R5  5.0  R7  -7.0
    C24  R3  5.0  R8  -1.0
    C24  R10  3.0  R15  -5.0
    C25  R20  -9.0  R3  -1.0
    C25  R11  -3.0  R4  -1.0
    C25  R2  2.0  R21  4.0
    C25  R9  5.0  R3  -3.0
    C25  R20  7.0  R19  -1.0
    C26  R3  -3.0  R18  -2.0
    C26  R6  4.0  R17  -4.0
    C26  R9  -1.0  R21  -1.0
    C26  R7  -2.0  R10  -3.0
    C26  R5  3.0  R17  5.0
    C26  OBJ  -2.0  R15  6.0
    C26  R3  4.0  R15  -1.0
    C27  OBJ  8.0  R7  9.0
    C27  R18  5.0  R5  -1.0
    C27  R14  -5.0  R7  -5.0
    C27  R10  -3.0  R17  -5.0
    C28  R4  3.0  R6  5.0
    C28  R10  -6.0  R11  6.0
    C28  OBJ  12.0  R10  4.0
    C28  R18  2.0  R11  -2.0
    C28  R8  -5.0  R19  -5.0
    C29  R12  1.0  R20  -4.0
    C29  OBJ  12.0  R5  1.0
    C29  R8  -1.0  R20  6.0
    C29  R18  -3.0  R14  1.0
    C29  R0  1.0  R21  5.0
    C29  R1  1.0  R15  -5.0
    C30  R16  1.0  R22  3.0
    C30  OBJ  -20.0  R3  6.0
    C30  R13  -2.0  R21  -1.0
    C30  R18  -10.0  R18  6.0
    C30  R2  3.0  R16  -6.0
    C30  R13  4.0  R3  -5.0
RHS
    RHS  R0  9.0
    RHS  R1  -66.0
    RHS  R2  27.0
    RHS  R3  -28.0
    RHS  R4  -49.0
    RHS  R5  9.0
    RHS  R6  41.0
    RHS  R7  -34.0
    RHS  R8  20.0
    RHS  R9  -69.0
    RHS  R10  -29.0
    RHS  R11  -38.0
    RHS  R12  -2.0
    RHS  R13  63.0
    RHS  R14  -4.0
    RHS  R15  -35.0
    RHS  R16  20.0
    RHS  R17  12.0
    RHS  R18  5.0
    RHS  R19  -96.0
    RHS  R20  -9.0
    RHS  R21  30.0
    RHS  R22  59.0
RANGES
    RNG  R0  -2.0
    RNG  R1  0.0
    RNG  R3  0.0
    RNG  R4  0.0
    RNG  R5  0.0
    RNG  R6  4.0
    RNG  R8  0.0
    RNG  R9  0.0
    RNG  R10  5.0
    RNG  R13  -5.0
    RNG  R14  -0
    RNG  R16  -0
    RNG  R17  0.0
    RNG  R18  -0
    RNG  R20  0.0
    RNG  R21  0.0
BOUNDS
 LO BND  C0  0.0
 UP BND  C0  2.0
 PL BND  C1
 LO BND  C2  2.0
 UP BND  C2  11.0
 LI BND  C3  0.0
 UI BND  C3  6.0
 UP BND  C4  6.0
 LI BND  C6  0.0
 UI BND  C6  2.0
 LI BND  C7  0.0
 UI BND  C7  10.0
 UP BND  C9  2.0
 LI BND  C12  0.0
 UI BND  C12  9.0
 LI BND  C14  0.0
 UI BND  C14  4.0
 LI BND  C15  0.0
 UI BND  C15  7.0
 LI BND  C16  0.0
 UI BND  C16  8.0
 LO BND  C17  -1.0
 UP BND  C17  3.0
 LI BND  C18  0.0
 UI BND  C18  6.0
 UP BND  C21  10.0
 LI BND  C24  0.0
 UI BND  C24  3.0
 UP BND  C25  9.0
 UP BND  C26  3.0
 LI BND  C28  -1.0
 UI BND  C28  1.0
 LI BND  C29  0.0
 UI BND  C29  5.0
ENDATA
